*SPEF "ieee 1481-1999"
*DESIGN "ook_digital_system"
*DATE "16:00:04 Monday September 28, 2026"
*VENDOR "The OpenROAD Project"
*PROGRAM "OpenROAD"
*VERSION "dcf36133a369abc8f3c5e5738cd4d82e4903c0e0"
*DESIGN_FLOW "NAME_SCOPE LOCAL" "PIN_CAP NONE"
*DIVIDER /
*DELIMITER :
*BUS_DELIMITER []
*T_UNIT 1 NS
*C_UNIT 1 PF
*R_UNIT 1 OHM
*L_UNIT 1 HENRY

*NAME_MAP
*3 clk
*4 clk_ref
*5 data_in_tx
*6 net
*7 net31
*8 q0
*9 q0_d
*10 q1
*11 q1_d
*12 q2
*13 q2_d
*14 q3
*15 q3_d
*16 rst
*17 rst_n_in
*18 vctrl
*19 vctrl_n
*20 _000_
*21 _001_
*22 _002_
*23 _003_
*24 _004_
*25 _005_
*26 _006_
*27 _007_
*28 _008_
*29 _009_
*30 _010_
*31 _011_
*32 _012_
*33 _013_
*34 _014_
*35 _015_
*36 _016_
*37 _017_
*38 _018_
*39 _019_
*40 _020_
*41 _021_
*42 _022_
*43 _023_
*44 _024_
*45 _025_
*46 _026_
*47 _027_
*48 clk_regs
*49 clknet_0_clk
*50 clknet_0_clk_regs
*51 clknet_1_0__leaf_clk
*52 clknet_2_0__leaf_clk_regs
*53 clknet_2_1__leaf_clk_regs
*54 clknet_2_2__leaf_clk_regs
*55 clknet_2_3__leaf_clk_regs
*56 committed_state
*57 data_in_tx_sync0
*58 data_in_tx_sync1
*59 deadtime_cnt\[0\]
*60 deadtime_cnt\[1\]
*61 deadtime_cnt\[2\]
*62 deadtime_cnt\[3\]
*63 in_deadtime
*64 net1
*65 net10
*66 net11
*67 net12
*68 net13
*69 net14
*70 net15
*71 net16
*72 net17
*73 net18
*74 net19
*75 net2
*76 net20
*77 net21
*78 net22
*79 net23
*80 net24
*81 net25
*82 net26
*83 net27
*84 net28
*85 net29
*86 net3
*87 net30
*88 net32
*89 net33
*90 net34
*91 net35
*92 net36
*93 net37
*94 net38
*95 net39
*96 net4
*97 net40
*98 net41
*99 net42
*100 net43
*101 net44
*102 net45
*103 net46
*104 net5
*105 net6
*106 net7
*107 net8
*108 net9
*109 q0_sync\[0\]
*110 q1_sync\[0\]
*111 q2_sync\[0\]
*112 q3_sync\[0\]
*113 FILLER_0_0
*114 FILLER_0_105
*115 FILLER_0_112
*116 FILLER_0_119
*117 FILLER_0_126
*118 FILLER_0_133
*119 FILLER_0_14
*120 FILLER_0_140
*121 FILLER_0_147
*122 FILLER_0_154
*123 FILLER_0_161
*124 FILLER_0_168
*125 FILLER_0_175
*126 FILLER_0_182
*127 FILLER_0_189
*128 FILLER_0_196
*129 FILLER_0_203
*130 FILLER_0_21
*131 FILLER_0_210
*132 FILLER_0_217
*133 FILLER_0_224
*134 FILLER_0_231
*135 FILLER_0_238
*136 FILLER_0_245
*137 FILLER_0_252
*138 FILLER_0_259
*139 FILLER_0_266
*140 FILLER_0_273
*141 FILLER_0_28
*142 FILLER_0_280
*143 FILLER_0_287
*144 FILLER_0_294
*145 FILLER_0_301
*146 FILLER_0_308
*147 FILLER_0_315
*148 FILLER_0_322
*149 FILLER_0_329
*150 FILLER_0_336
*151 FILLER_0_343
*152 FILLER_0_35
*153 FILLER_0_350
*154 FILLER_0_357
*155 FILLER_0_42
*156 FILLER_0_49
*157 FILLER_0_56
*158 FILLER_0_63
*159 FILLER_0_7
*160 FILLER_0_70
*161 FILLER_0_77
*162 FILLER_0_84
*163 FILLER_0_91
*164 FILLER_0_98
*165 FILLER_10_0
*166 FILLER_10_105
*167 FILLER_10_112
*168 FILLER_10_119
*169 FILLER_10_126
*170 FILLER_10_133
*171 FILLER_10_14
*172 FILLER_10_140
*173 FILLER_10_147
*174 FILLER_10_154
*175 FILLER_10_161
*176 FILLER_10_168
*177 FILLER_10_175
*178 FILLER_10_182
*179 FILLER_10_189
*180 FILLER_10_196
*181 FILLER_10_203
*182 FILLER_10_21
*183 FILLER_10_210
*184 FILLER_10_217
*185 FILLER_10_224
*186 FILLER_10_231
*187 FILLER_10_238
*188 FILLER_10_245
*189 FILLER_10_252
*190 FILLER_10_259
*191 FILLER_10_266
*192 FILLER_10_273
*193 FILLER_10_28
*194 FILLER_10_280
*195 FILLER_10_287
*196 FILLER_10_294
*197 FILLER_10_301
*198 FILLER_10_308
*199 FILLER_10_315
*200 FILLER_10_322
*201 FILLER_10_329
*202 FILLER_10_336
*203 FILLER_10_343
*204 FILLER_10_35
*205 FILLER_10_350
*206 FILLER_10_357
*207 FILLER_10_42
*208 FILLER_10_49
*209 FILLER_10_56
*210 FILLER_10_63
*211 FILLER_10_7
*212 FILLER_10_70
*213 FILLER_10_77
*214 FILLER_10_84
*215 FILLER_10_91
*216 FILLER_10_98
*217 FILLER_11_0
*218 FILLER_11_105
*219 FILLER_11_112
*220 FILLER_11_119
*221 FILLER_11_126
*222 FILLER_11_133
*223 FILLER_11_14
*224 FILLER_11_140
*225 FILLER_11_147
*226 FILLER_11_154
*227 FILLER_11_161
*228 FILLER_11_168
*229 FILLER_11_175
*230 FILLER_11_182
*231 FILLER_11_189
*232 FILLER_11_196
*233 FILLER_11_203
*234 FILLER_11_21
*235 FILLER_11_210
*236 FILLER_11_217
*237 FILLER_11_224
*238 FILLER_11_231
*239 FILLER_11_238
*240 FILLER_11_245
*241 FILLER_11_252
*242 FILLER_11_259
*243 FILLER_11_266
*244 FILLER_11_273
*245 FILLER_11_28
*246 FILLER_11_280
*247 FILLER_11_287
*248 FILLER_11_294
*249 FILLER_11_301
*250 FILLER_11_308
*251 FILLER_11_315
*252 FILLER_11_322
*253 FILLER_11_329
*254 FILLER_11_336
*255 FILLER_11_343
*256 FILLER_11_35
*257 FILLER_11_350
*258 FILLER_11_357
*259 FILLER_11_42
*260 FILLER_11_49
*261 FILLER_11_56
*262 FILLER_11_63
*263 FILLER_11_7
*264 FILLER_11_70
*265 FILLER_11_77
*266 FILLER_11_84
*267 FILLER_11_91
*268 FILLER_11_98
*269 FILLER_12_0
*270 FILLER_12_105
*271 FILLER_12_112
*272 FILLER_12_119
*273 FILLER_12_126
*274 FILLER_12_133
*275 FILLER_12_14
*276 FILLER_12_140
*277 FILLER_12_147
*278 FILLER_12_154
*279 FILLER_12_161
*280 FILLER_12_168
*281 FILLER_12_175
*282 FILLER_12_182
*283 FILLER_12_189
*284 FILLER_12_196
*285 FILLER_12_203
*286 FILLER_12_21
*287 FILLER_12_210
*288 FILLER_12_217
*289 FILLER_12_224
*290 FILLER_12_231
*291 FILLER_12_238
*292 FILLER_12_245
*293 FILLER_12_252
*294 FILLER_12_259
*295 FILLER_12_266
*296 FILLER_12_273
*297 FILLER_12_28
*298 FILLER_12_280
*299 FILLER_12_287
*300 FILLER_12_294
*301 FILLER_12_301
*302 FILLER_12_308
*303 FILLER_12_315
*304 FILLER_12_322
*305 FILLER_12_329
*306 FILLER_12_336
*307 FILLER_12_343
*308 FILLER_12_35
*309 FILLER_12_350
*310 FILLER_12_357
*311 FILLER_12_42
*312 FILLER_12_49
*313 FILLER_12_56
*314 FILLER_12_63
*315 FILLER_12_7
*316 FILLER_12_70
*317 FILLER_12_77
*318 FILLER_12_84
*319 FILLER_12_91
*320 FILLER_12_98
*321 FILLER_13_0
*322 FILLER_13_105
*323 FILLER_13_112
*324 FILLER_13_119
*325 FILLER_13_126
*326 FILLER_13_133
*327 FILLER_13_14
*328 FILLER_13_140
*329 FILLER_13_147
*330 FILLER_13_154
*331 FILLER_13_161
*332 FILLER_13_168
*333 FILLER_13_175
*334 FILLER_13_182
*335 FILLER_13_189
*336 FILLER_13_196
*337 FILLER_13_203
*338 FILLER_13_21
*339 FILLER_13_210
*340 FILLER_13_217
*341 FILLER_13_224
*342 FILLER_13_231
*343 FILLER_13_238
*344 FILLER_13_245
*345 FILLER_13_252
*346 FILLER_13_259
*347 FILLER_13_266
*348 FILLER_13_273
*349 FILLER_13_28
*350 FILLER_13_280
*351 FILLER_13_287
*352 FILLER_13_294
*353 FILLER_13_301
*354 FILLER_13_308
*355 FILLER_13_315
*356 FILLER_13_322
*357 FILLER_13_329
*358 FILLER_13_336
*359 FILLER_13_343
*360 FILLER_13_35
*361 FILLER_13_350
*362 FILLER_13_357
*363 FILLER_13_42
*364 FILLER_13_49
*365 FILLER_13_56
*366 FILLER_13_63
*367 FILLER_13_7
*368 FILLER_13_70
*369 FILLER_13_77
*370 FILLER_13_84
*371 FILLER_13_91
*372 FILLER_13_98
*373 FILLER_14_102
*374 FILLER_14_109
*375 FILLER_14_11
*376 FILLER_14_116
*377 FILLER_14_123
*378 FILLER_14_130
*379 FILLER_14_137
*380 FILLER_14_144
*381 FILLER_14_151
*382 FILLER_14_158
*383 FILLER_14_165
*384 FILLER_14_172
*385 FILLER_14_179
*386 FILLER_14_18
*387 FILLER_14_186
*388 FILLER_14_193
*389 FILLER_14_200
*390 FILLER_14_207
*391 FILLER_14_214
*392 FILLER_14_221
*393 FILLER_14_228
*394 FILLER_14_235
*395 FILLER_14_242
*396 FILLER_14_249
*397 FILLER_14_25
*398 FILLER_14_256
*399 FILLER_14_263
*400 FILLER_14_270
*401 FILLER_14_277
*402 FILLER_14_284
*403 FILLER_14_291
*404 FILLER_14_298
*405 FILLER_14_305
*406 FILLER_14_312
*407 FILLER_14_319
*408 FILLER_14_32
*409 FILLER_14_326
*410 FILLER_14_333
*411 FILLER_14_340
*412 FILLER_14_347
*413 FILLER_14_354
*414 FILLER_14_358
*415 FILLER_14_39
*416 FILLER_14_4
*417 FILLER_14_46
*418 FILLER_14_53
*419 FILLER_14_60
*420 FILLER_14_67
*421 FILLER_14_74
*422 FILLER_14_81
*423 FILLER_14_88
*424 FILLER_14_95
*425 FILLER_15_0
*426 FILLER_15_105
*427 FILLER_15_112
*428 FILLER_15_119
*429 FILLER_15_126
*430 FILLER_15_133
*431 FILLER_15_14
*432 FILLER_15_140
*433 FILLER_15_147
*434 FILLER_15_154
*435 FILLER_15_161
*436 FILLER_15_168
*437 FILLER_15_175
*438 FILLER_15_182
*439 FILLER_15_189
*440 FILLER_15_196
*441 FILLER_15_203
*442 FILLER_15_21
*443 FILLER_15_210
*444 FILLER_15_217
*445 FILLER_15_224
*446 FILLER_15_231
*447 FILLER_15_238
*448 FILLER_15_245
*449 FILLER_15_252
*450 FILLER_15_259
*451 FILLER_15_266
*452 FILLER_15_273
*453 FILLER_15_28
*454 FILLER_15_280
*455 FILLER_15_287
*456 FILLER_15_294
*457 FILLER_15_301
*458 FILLER_15_308
*459 FILLER_15_315
*460 FILLER_15_332
*461 FILLER_15_339
*462 FILLER_15_346
*463 FILLER_15_35
*464 FILLER_15_353
*465 FILLER_15_357
*466 FILLER_15_42
*467 FILLER_15_49
*468 FILLER_15_56
*469 FILLER_15_63
*470 FILLER_15_7
*471 FILLER_15_70
*472 FILLER_15_77
*473 FILLER_15_84
*474 FILLER_15_91
*475 FILLER_15_98
*476 FILLER_16_0
*477 FILLER_16_105
*478 FILLER_16_112
*479 FILLER_16_119
*480 FILLER_16_126
*481 FILLER_16_133
*482 FILLER_16_14
*483 FILLER_16_140
*484 FILLER_16_147
*485 FILLER_16_154
*486 FILLER_16_161
*487 FILLER_16_168
*488 FILLER_16_175
*489 FILLER_16_182
*490 FILLER_16_189
*491 FILLER_16_196
*492 FILLER_16_203
*493 FILLER_16_21
*494 FILLER_16_210
*495 FILLER_16_217
*496 FILLER_16_224
*497 FILLER_16_231
*498 FILLER_16_238
*499 FILLER_16_245
*500 FILLER_16_252
*501 FILLER_16_259
*502 FILLER_16_266
*503 FILLER_16_273
*504 FILLER_16_28
*505 FILLER_16_280
*506 FILLER_16_287
*507 FILLER_16_294
*508 FILLER_16_301
*509 FILLER_16_308
*510 FILLER_16_315
*511 FILLER_16_322
*512 FILLER_16_329
*513 FILLER_16_336
*514 FILLER_16_343
*515 FILLER_16_35
*516 FILLER_16_350
*517 FILLER_16_354
*518 FILLER_16_42
*519 FILLER_16_49
*520 FILLER_16_56
*521 FILLER_16_63
*522 FILLER_16_7
*523 FILLER_16_70
*524 FILLER_16_77
*525 FILLER_16_84
*526 FILLER_16_91
*527 FILLER_16_98
*528 FILLER_17_0
*529 FILLER_17_105
*530 FILLER_17_112
*531 FILLER_17_119
*532 FILLER_17_126
*533 FILLER_17_133
*534 FILLER_17_14
*535 FILLER_17_140
*536 FILLER_17_147
*537 FILLER_17_154
*538 FILLER_17_161
*539 FILLER_17_168
*540 FILLER_17_175
*541 FILLER_17_182
*542 FILLER_17_189
*543 FILLER_17_196
*544 FILLER_17_203
*545 FILLER_17_21
*546 FILLER_17_210
*547 FILLER_17_217
*548 FILLER_17_224
*549 FILLER_17_231
*550 FILLER_17_238
*551 FILLER_17_245
*552 FILLER_17_252
*553 FILLER_17_259
*554 FILLER_17_266
*555 FILLER_17_273
*556 FILLER_17_28
*557 FILLER_17_280
*558 FILLER_17_287
*559 FILLER_17_294
*560 FILLER_17_327
*561 FILLER_17_334
*562 FILLER_17_341
*563 FILLER_17_35
*564 FILLER_17_42
*565 FILLER_17_49
*566 FILLER_17_56
*567 FILLER_17_63
*568 FILLER_17_7
*569 FILLER_17_70
*570 FILLER_17_77
*571 FILLER_17_84
*572 FILLER_17_91
*573 FILLER_17_98
*574 FILLER_18_0
*575 FILLER_18_105
*576 FILLER_18_112
*577 FILLER_18_119
*578 FILLER_18_126
*579 FILLER_18_133
*580 FILLER_18_14
*581 FILLER_18_140
*582 FILLER_18_147
*583 FILLER_18_154
*584 FILLER_18_161
*585 FILLER_18_168
*586 FILLER_18_175
*587 FILLER_18_182
*588 FILLER_18_189
*589 FILLER_18_196
*590 FILLER_18_203
*591 FILLER_18_21
*592 FILLER_18_210
*593 FILLER_18_217
*594 FILLER_18_224
*595 FILLER_18_231
*596 FILLER_18_238
*597 FILLER_18_245
*598 FILLER_18_252
*599 FILLER_18_259
*600 FILLER_18_266
*601 FILLER_18_273
*602 FILLER_18_28
*603 FILLER_18_280
*604 FILLER_18_287
*605 FILLER_18_289
*606 FILLER_18_303
*607 FILLER_18_332
*608 FILLER_18_339
*609 FILLER_18_346
*610 FILLER_18_35
*611 FILLER_18_357
*612 FILLER_18_42
*613 FILLER_18_49
*614 FILLER_18_56
*615 FILLER_18_63
*616 FILLER_18_7
*617 FILLER_18_70
*618 FILLER_18_77
*619 FILLER_18_84
*620 FILLER_18_91
*621 FILLER_18_98
*622 FILLER_19_0
*623 FILLER_19_105
*624 FILLER_19_112
*625 FILLER_19_119
*626 FILLER_19_126
*627 FILLER_19_133
*628 FILLER_19_14
*629 FILLER_19_140
*630 FILLER_19_147
*631 FILLER_19_154
*632 FILLER_19_161
*633 FILLER_19_168
*634 FILLER_19_175
*635 FILLER_19_182
*636 FILLER_19_189
*637 FILLER_19_196
*638 FILLER_19_203
*639 FILLER_19_21
*640 FILLER_19_210
*641 FILLER_19_217
*642 FILLER_19_224
*643 FILLER_19_231
*644 FILLER_19_238
*645 FILLER_19_245
*646 FILLER_19_252
*647 FILLER_19_259
*648 FILLER_19_266
*649 FILLER_19_270
*650 FILLER_19_28
*651 FILLER_19_321
*652 FILLER_19_330
*653 FILLER_19_337
*654 FILLER_19_344
*655 FILLER_19_35
*656 FILLER_19_351
*657 FILLER_19_358
*658 FILLER_19_42
*659 FILLER_19_49
*660 FILLER_19_56
*661 FILLER_19_63
*662 FILLER_19_7
*663 FILLER_19_70
*664 FILLER_19_77
*665 FILLER_19_84
*666 FILLER_19_91
*667 FILLER_19_98
*668 FILLER_1_0
*669 FILLER_1_105
*670 FILLER_1_112
*671 FILLER_1_119
*672 FILLER_1_126
*673 FILLER_1_133
*674 FILLER_1_14
*675 FILLER_1_140
*676 FILLER_1_147
*677 FILLER_1_154
*678 FILLER_1_161
*679 FILLER_1_168
*680 FILLER_1_175
*681 FILLER_1_182
*682 FILLER_1_189
*683 FILLER_1_196
*684 FILLER_1_203
*685 FILLER_1_21
*686 FILLER_1_210
*687 FILLER_1_217
*688 FILLER_1_224
*689 FILLER_1_231
*690 FILLER_1_238
*691 FILLER_1_245
*692 FILLER_1_252
*693 FILLER_1_259
*694 FILLER_1_266
*695 FILLER_1_273
*696 FILLER_1_28
*697 FILLER_1_280
*698 FILLER_1_287
*699 FILLER_1_294
*700 FILLER_1_301
*701 FILLER_1_308
*702 FILLER_1_315
*703 FILLER_1_322
*704 FILLER_1_329
*705 FILLER_1_336
*706 FILLER_1_343
*707 FILLER_1_35
*708 FILLER_1_350
*709 FILLER_1_357
*710 FILLER_1_42
*711 FILLER_1_49
*712 FILLER_1_56
*713 FILLER_1_63
*714 FILLER_1_7
*715 FILLER_1_70
*716 FILLER_1_77
*717 FILLER_1_84
*718 FILLER_1_91
*719 FILLER_1_98
*720 FILLER_20_102
*721 FILLER_20_109
*722 FILLER_20_11
*723 FILLER_20_116
*724 FILLER_20_123
*725 FILLER_20_130
*726 FILLER_20_137
*727 FILLER_20_144
*728 FILLER_20_151
*729 FILLER_20_158
*730 FILLER_20_165
*731 FILLER_20_172
*732 FILLER_20_179
*733 FILLER_20_18
*734 FILLER_20_186
*735 FILLER_20_193
*736 FILLER_20_200
*737 FILLER_20_207
*738 FILLER_20_214
*739 FILLER_20_221
*740 FILLER_20_228
*741 FILLER_20_235
*742 FILLER_20_242
*743 FILLER_20_25
*744 FILLER_20_32
*745 FILLER_20_332
*746 FILLER_20_339
*747 FILLER_20_39
*748 FILLER_20_4
*749 FILLER_20_46
*750 FILLER_20_53
*751 FILLER_20_60
*752 FILLER_20_67
*753 FILLER_20_74
*754 FILLER_20_81
*755 FILLER_20_88
*756 FILLER_20_95
*757 FILLER_21_0
*758 FILLER_21_105
*759 FILLER_21_112
*760 FILLER_21_119
*761 FILLER_21_126
*762 FILLER_21_133
*763 FILLER_21_14
*764 FILLER_21_140
*765 FILLER_21_147
*766 FILLER_21_154
*767 FILLER_21_161
*768 FILLER_21_168
*769 FILLER_21_175
*770 FILLER_21_182
*771 FILLER_21_189
*772 FILLER_21_196
*773 FILLER_21_203
*774 FILLER_21_21
*775 FILLER_21_210
*776 FILLER_21_217
*777 FILLER_21_224
*778 FILLER_21_231
*779 FILLER_21_238
*780 FILLER_21_245
*781 FILLER_21_253
*782 FILLER_21_260
*783 FILLER_21_266
*784 FILLER_21_28
*785 FILLER_21_280
*786 FILLER_21_304
*787 FILLER_21_332
*788 FILLER_21_339
*789 FILLER_21_35
*790 FILLER_21_42
*791 FILLER_21_49
*792 FILLER_21_56
*793 FILLER_21_63
*794 FILLER_21_7
*795 FILLER_21_70
*796 FILLER_21_77
*797 FILLER_21_84
*798 FILLER_21_91
*799 FILLER_21_98
*800 FILLER_22_0
*801 FILLER_22_105
*802 FILLER_22_112
*803 FILLER_22_119
*804 FILLER_22_126
*805 FILLER_22_133
*806 FILLER_22_14
*807 FILLER_22_140
*808 FILLER_22_147
*809 FILLER_22_154
*810 FILLER_22_161
*811 FILLER_22_168
*812 FILLER_22_175
*813 FILLER_22_182
*814 FILLER_22_189
*815 FILLER_22_196
*816 FILLER_22_203
*817 FILLER_22_21
*818 FILLER_22_210
*819 FILLER_22_217
*820 FILLER_22_224
*821 FILLER_22_231
*822 FILLER_22_238
*823 FILLER_22_245
*824 FILLER_22_252
*825 FILLER_22_259
*826 FILLER_22_266
*827 FILLER_22_270
*828 FILLER_22_28
*829 FILLER_22_332
*830 FILLER_22_334
*831 FILLER_22_338
*832 FILLER_22_340
*833 FILLER_22_35
*834 FILLER_22_42
*835 FILLER_22_49
*836 FILLER_22_56
*837 FILLER_22_63
*838 FILLER_22_7
*839 FILLER_22_70
*840 FILLER_22_77
*841 FILLER_22_84
*842 FILLER_22_91
*843 FILLER_22_98
*844 FILLER_23_0
*845 FILLER_23_105
*846 FILLER_23_112
*847 FILLER_23_119
*848 FILLER_23_126
*849 FILLER_23_133
*850 FILLER_23_14
*851 FILLER_23_140
*852 FILLER_23_147
*853 FILLER_23_154
*854 FILLER_23_161
*855 FILLER_23_168
*856 FILLER_23_175
*857 FILLER_23_182
*858 FILLER_23_189
*859 FILLER_23_196
*860 FILLER_23_203
*861 FILLER_23_21
*862 FILLER_23_210
*863 FILLER_23_217
*864 FILLER_23_224
*865 FILLER_23_231
*866 FILLER_23_238
*867 FILLER_23_245
*868 FILLER_23_252
*869 FILLER_23_259
*870 FILLER_23_266
*871 FILLER_23_273
*872 FILLER_23_275
*873 FILLER_23_28
*874 FILLER_23_290
*875 FILLER_23_320
*876 FILLER_23_330
*877 FILLER_23_337
*878 FILLER_23_35
*879 FILLER_23_355
*880 FILLER_23_42
*881 FILLER_23_49
*882 FILLER_23_56
*883 FILLER_23_63
*884 FILLER_23_7
*885 FILLER_23_70
*886 FILLER_23_77
*887 FILLER_23_84
*888 FILLER_23_91
*889 FILLER_23_98
*890 FILLER_24_0
*891 FILLER_24_105
*892 FILLER_24_112
*893 FILLER_24_119
*894 FILLER_24_126
*895 FILLER_24_133
*896 FILLER_24_14
*897 FILLER_24_140
*898 FILLER_24_147
*899 FILLER_24_154
*900 FILLER_24_161
*901 FILLER_24_168
*902 FILLER_24_175
*903 FILLER_24_182
*904 FILLER_24_189
*905 FILLER_24_196
*906 FILLER_24_203
*907 FILLER_24_21
*908 FILLER_24_210
*909 FILLER_24_217
*910 FILLER_24_224
*911 FILLER_24_231
*912 FILLER_24_238
*913 FILLER_24_245
*914 FILLER_24_252
*915 FILLER_24_259
*916 FILLER_24_266
*917 FILLER_24_273
*918 FILLER_24_28
*919 FILLER_24_284
*920 FILLER_24_290
*921 FILLER_24_319
*922 FILLER_24_332
*923 FILLER_24_339
*924 FILLER_24_345
*925 FILLER_24_35
*926 FILLER_24_352
*927 FILLER_24_42
*928 FILLER_24_49
*929 FILLER_24_56
*930 FILLER_24_63
*931 FILLER_24_7
*932 FILLER_24_70
*933 FILLER_24_77
*934 FILLER_24_84
*935 FILLER_24_91
*936 FILLER_24_98
*937 FILLER_25_102
*938 FILLER_25_109
*939 FILLER_25_11
*940 FILLER_25_116
*941 FILLER_25_123
*942 FILLER_25_130
*943 FILLER_25_137
*944 FILLER_25_144
*945 FILLER_25_151
*946 FILLER_25_158
*947 FILLER_25_165
*948 FILLER_25_172
*949 FILLER_25_179
*950 FILLER_25_18
*951 FILLER_25_186
*952 FILLER_25_193
*953 FILLER_25_200
*954 FILLER_25_207
*955 FILLER_25_214
*956 FILLER_25_221
*957 FILLER_25_228
*958 FILLER_25_235
*959 FILLER_25_242
*960 FILLER_25_249
*961 FILLER_25_25
*962 FILLER_25_256
*963 FILLER_25_263
*964 FILLER_25_270
*965 FILLER_25_277
*966 FILLER_25_284
*967 FILLER_25_291
*968 FILLER_25_295
*969 FILLER_25_307
*970 FILLER_25_311
*971 FILLER_25_32
*972 FILLER_25_328
*973 FILLER_25_335
*974 FILLER_25_342
*975 FILLER_25_349
*976 FILLER_25_356
*977 FILLER_25_358
*978 FILLER_25_39
*979 FILLER_25_4
*980 FILLER_25_46
*981 FILLER_25_53
*982 FILLER_25_60
*983 FILLER_25_67
*984 FILLER_25_74
*985 FILLER_25_81
*986 FILLER_25_88
*987 FILLER_25_95
*988 FILLER_26_0
*989 FILLER_26_105
*990 FILLER_26_112
*991 FILLER_26_119
*992 FILLER_26_126
*993 FILLER_26_133
*994 FILLER_26_14
*995 FILLER_26_140
*996 FILLER_26_147
*997 FILLER_26_154
*998 FILLER_26_161
*999 FILLER_26_168
*1000 FILLER_26_175
*1001 FILLER_26_182
*1002 FILLER_26_189
*1003 FILLER_26_196
*1004 FILLER_26_203
*1005 FILLER_26_21
*1006 FILLER_26_210
*1007 FILLER_26_217
*1008 FILLER_26_224
*1009 FILLER_26_231
*1010 FILLER_26_238
*1011 FILLER_26_245
*1012 FILLER_26_252
*1013 FILLER_26_259
*1014 FILLER_26_266
*1015 FILLER_26_273
*1016 FILLER_26_28
*1017 FILLER_26_280
*1018 FILLER_26_287
*1019 FILLER_26_294
*1020 FILLER_26_301
*1021 FILLER_26_332
*1022 FILLER_26_339
*1023 FILLER_26_346
*1024 FILLER_26_35
*1025 FILLER_26_353
*1026 FILLER_26_357
*1027 FILLER_26_42
*1028 FILLER_26_49
*1029 FILLER_26_56
*1030 FILLER_26_63
*1031 FILLER_26_7
*1032 FILLER_26_70
*1033 FILLER_26_77
*1034 FILLER_26_84
*1035 FILLER_26_91
*1036 FILLER_26_98
*1037 FILLER_27_0
*1038 FILLER_27_105
*1039 FILLER_27_112
*1040 FILLER_27_119
*1041 FILLER_27_126
*1042 FILLER_27_133
*1043 FILLER_27_14
*1044 FILLER_27_140
*1045 FILLER_27_147
*1046 FILLER_27_154
*1047 FILLER_27_161
*1048 FILLER_27_168
*1049 FILLER_27_175
*1050 FILLER_27_182
*1051 FILLER_27_189
*1052 FILLER_27_196
*1053 FILLER_27_203
*1054 FILLER_27_21
*1055 FILLER_27_210
*1056 FILLER_27_217
*1057 FILLER_27_224
*1058 FILLER_27_231
*1059 FILLER_27_238
*1060 FILLER_27_245
*1061 FILLER_27_252
*1062 FILLER_27_259
*1063 FILLER_27_266
*1064 FILLER_27_273
*1065 FILLER_27_28
*1066 FILLER_27_280
*1067 FILLER_27_287
*1068 FILLER_27_294
*1069 FILLER_27_301
*1070 FILLER_27_330
*1071 FILLER_27_337
*1072 FILLER_27_35
*1073 FILLER_27_350
*1074 FILLER_27_357
*1075 FILLER_27_42
*1076 FILLER_27_49
*1077 FILLER_27_56
*1078 FILLER_27_63
*1079 FILLER_27_7
*1080 FILLER_27_70
*1081 FILLER_27_77
*1082 FILLER_27_84
*1083 FILLER_27_91
*1084 FILLER_27_98
*1085 FILLER_28_0
*1086 FILLER_28_105
*1087 FILLER_28_112
*1088 FILLER_28_119
*1089 FILLER_28_126
*1090 FILLER_28_133
*1091 FILLER_28_14
*1092 FILLER_28_140
*1093 FILLER_28_147
*1094 FILLER_28_154
*1095 FILLER_28_161
*1096 FILLER_28_168
*1097 FILLER_28_175
*1098 FILLER_28_182
*1099 FILLER_28_189
*1100 FILLER_28_196
*1101 FILLER_28_203
*1102 FILLER_28_21
*1103 FILLER_28_210
*1104 FILLER_28_217
*1105 FILLER_28_224
*1106 FILLER_28_231
*1107 FILLER_28_238
*1108 FILLER_28_245
*1109 FILLER_28_252
*1110 FILLER_28_259
*1111 FILLER_28_266
*1112 FILLER_28_273
*1113 FILLER_28_28
*1114 FILLER_28_280
*1115 FILLER_28_287
*1116 FILLER_28_294
*1117 FILLER_28_301
*1118 FILLER_28_312
*1119 FILLER_28_319
*1120 FILLER_28_326
*1121 FILLER_28_331
*1122 FILLER_28_338
*1123 FILLER_28_345
*1124 FILLER_28_35
*1125 FILLER_28_352
*1126 FILLER_28_42
*1127 FILLER_28_49
*1128 FILLER_28_56
*1129 FILLER_28_63
*1130 FILLER_28_7
*1131 FILLER_28_70
*1132 FILLER_28_77
*1133 FILLER_28_84
*1134 FILLER_28_91
*1135 FILLER_28_98
*1136 FILLER_29_0
*1137 FILLER_29_105
*1138 FILLER_29_112
*1139 FILLER_29_119
*1140 FILLER_29_126
*1141 FILLER_29_133
*1142 FILLER_29_14
*1143 FILLER_29_140
*1144 FILLER_29_147
*1145 FILLER_29_154
*1146 FILLER_29_161
*1147 FILLER_29_168
*1148 FILLER_29_175
*1149 FILLER_29_182
*1150 FILLER_29_189
*1151 FILLER_29_196
*1152 FILLER_29_203
*1153 FILLER_29_21
*1154 FILLER_29_210
*1155 FILLER_29_217
*1156 FILLER_29_224
*1157 FILLER_29_231
*1158 FILLER_29_238
*1159 FILLER_29_245
*1160 FILLER_29_252
*1161 FILLER_29_259
*1162 FILLER_29_272
*1163 FILLER_29_279
*1164 FILLER_29_28
*1165 FILLER_29_283
*1166 FILLER_29_298
*1167 FILLER_29_305
*1168 FILLER_29_312
*1169 FILLER_29_319
*1170 FILLER_29_326
*1171 FILLER_29_333
*1172 FILLER_29_340
*1173 FILLER_29_347
*1174 FILLER_29_35
*1175 FILLER_29_354
*1176 FILLER_29_42
*1177 FILLER_29_49
*1178 FILLER_29_56
*1179 FILLER_29_63
*1180 FILLER_29_7
*1181 FILLER_29_70
*1182 FILLER_29_77
*1183 FILLER_29_84
*1184 FILLER_29_91
*1185 FILLER_29_98
*1186 FILLER_2_102
*1187 FILLER_2_109
*1188 FILLER_2_11
*1189 FILLER_2_116
*1190 FILLER_2_123
*1191 FILLER_2_130
*1192 FILLER_2_137
*1193 FILLER_2_144
*1194 FILLER_2_151
*1195 FILLER_2_158
*1196 FILLER_2_165
*1197 FILLER_2_172
*1198 FILLER_2_179
*1199 FILLER_2_18
*1200 FILLER_2_186
*1201 FILLER_2_193
*1202 FILLER_2_200
*1203 FILLER_2_207
*1204 FILLER_2_214
*1205 FILLER_2_221
*1206 FILLER_2_228
*1207 FILLER_2_235
*1208 FILLER_2_242
*1209 FILLER_2_249
*1210 FILLER_2_25
*1211 FILLER_2_256
*1212 FILLER_2_263
*1213 FILLER_2_270
*1214 FILLER_2_277
*1215 FILLER_2_284
*1216 FILLER_2_291
*1217 FILLER_2_298
*1218 FILLER_2_305
*1219 FILLER_2_312
*1220 FILLER_2_319
*1221 FILLER_2_32
*1222 FILLER_2_326
*1223 FILLER_2_333
*1224 FILLER_2_340
*1225 FILLER_2_347
*1226 FILLER_2_354
*1227 FILLER_2_358
*1228 FILLER_2_39
*1229 FILLER_2_4
*1230 FILLER_2_46
*1231 FILLER_2_53
*1232 FILLER_2_60
*1233 FILLER_2_67
*1234 FILLER_2_74
*1235 FILLER_2_81
*1236 FILLER_2_88
*1237 FILLER_2_95
*1238 FILLER_30_0
*1239 FILLER_30_105
*1240 FILLER_30_112
*1241 FILLER_30_119
*1242 FILLER_30_126
*1243 FILLER_30_133
*1244 FILLER_30_14
*1245 FILLER_30_140
*1246 FILLER_30_147
*1247 FILLER_30_154
*1248 FILLER_30_161
*1249 FILLER_30_168
*1250 FILLER_30_175
*1251 FILLER_30_182
*1252 FILLER_30_189
*1253 FILLER_30_196
*1254 FILLER_30_203
*1255 FILLER_30_21
*1256 FILLER_30_210
*1257 FILLER_30_217
*1258 FILLER_30_224
*1259 FILLER_30_231
*1260 FILLER_30_238
*1261 FILLER_30_245
*1262 FILLER_30_252
*1263 FILLER_30_259
*1264 FILLER_30_266
*1265 FILLER_30_273
*1266 FILLER_30_28
*1267 FILLER_30_280
*1268 FILLER_30_284
*1269 FILLER_30_298
*1270 FILLER_30_315
*1271 FILLER_30_322
*1272 FILLER_30_329
*1273 FILLER_30_336
*1274 FILLER_30_343
*1275 FILLER_30_35
*1276 FILLER_30_350
*1277 FILLER_30_357
*1278 FILLER_30_42
*1279 FILLER_30_49
*1280 FILLER_30_56
*1281 FILLER_30_63
*1282 FILLER_30_7
*1283 FILLER_30_70
*1284 FILLER_30_77
*1285 FILLER_30_84
*1286 FILLER_30_91
*1287 FILLER_30_98
*1288 FILLER_31_102
*1289 FILLER_31_109
*1290 FILLER_31_11
*1291 FILLER_31_116
*1292 FILLER_31_123
*1293 FILLER_31_130
*1294 FILLER_31_137
*1295 FILLER_31_144
*1296 FILLER_31_151
*1297 FILLER_31_158
*1298 FILLER_31_165
*1299 FILLER_31_172
*1300 FILLER_31_179
*1301 FILLER_31_18
*1302 FILLER_31_186
*1303 FILLER_31_193
*1304 FILLER_31_200
*1305 FILLER_31_207
*1306 FILLER_31_214
*1307 FILLER_31_221
*1308 FILLER_31_228
*1309 FILLER_31_235
*1310 FILLER_31_242
*1311 FILLER_31_249
*1312 FILLER_31_25
*1313 FILLER_31_256
*1314 FILLER_31_263
*1315 FILLER_31_270
*1316 FILLER_31_277
*1317 FILLER_31_284
*1318 FILLER_31_291
*1319 FILLER_31_298
*1320 FILLER_31_305
*1321 FILLER_31_312
*1322 FILLER_31_319
*1323 FILLER_31_32
*1324 FILLER_31_326
*1325 FILLER_31_333
*1326 FILLER_31_340
*1327 FILLER_31_347
*1328 FILLER_31_354
*1329 FILLER_31_358
*1330 FILLER_31_39
*1331 FILLER_31_4
*1332 FILLER_31_46
*1333 FILLER_31_53
*1334 FILLER_31_60
*1335 FILLER_31_67
*1336 FILLER_31_74
*1337 FILLER_31_81
*1338 FILLER_31_88
*1339 FILLER_31_95
*1340 FILLER_32_0
*1341 FILLER_32_105
*1342 FILLER_32_112
*1343 FILLER_32_119
*1344 FILLER_32_126
*1345 FILLER_32_133
*1346 FILLER_32_14
*1347 FILLER_32_140
*1348 FILLER_32_147
*1349 FILLER_32_154
*1350 FILLER_32_161
*1351 FILLER_32_168
*1352 FILLER_32_175
*1353 FILLER_32_182
*1354 FILLER_32_189
*1355 FILLER_32_196
*1356 FILLER_32_203
*1357 FILLER_32_21
*1358 FILLER_32_210
*1359 FILLER_32_217
*1360 FILLER_32_224
*1361 FILLER_32_231
*1362 FILLER_32_238
*1363 FILLER_32_245
*1364 FILLER_32_252
*1365 FILLER_32_259
*1366 FILLER_32_266
*1367 FILLER_32_273
*1368 FILLER_32_28
*1369 FILLER_32_280
*1370 FILLER_32_287
*1371 FILLER_32_294
*1372 FILLER_32_301
*1373 FILLER_32_308
*1374 FILLER_32_315
*1375 FILLER_32_322
*1376 FILLER_32_329
*1377 FILLER_32_336
*1378 FILLER_32_343
*1379 FILLER_32_35
*1380 FILLER_32_350
*1381 FILLER_32_357
*1382 FILLER_32_42
*1383 FILLER_32_49
*1384 FILLER_32_56
*1385 FILLER_32_63
*1386 FILLER_32_7
*1387 FILLER_32_70
*1388 FILLER_32_77
*1389 FILLER_32_84
*1390 FILLER_32_91
*1391 FILLER_32_98
*1392 FILLER_33_0
*1393 FILLER_33_105
*1394 FILLER_33_112
*1395 FILLER_33_119
*1396 FILLER_33_126
*1397 FILLER_33_133
*1398 FILLER_33_14
*1399 FILLER_33_140
*1400 FILLER_33_147
*1401 FILLER_33_154
*1402 FILLER_33_161
*1403 FILLER_33_168
*1404 FILLER_33_175
*1405 FILLER_33_182
*1406 FILLER_33_189
*1407 FILLER_33_196
*1408 FILLER_33_203
*1409 FILLER_33_21
*1410 FILLER_33_210
*1411 FILLER_33_217
*1412 FILLER_33_224
*1413 FILLER_33_231
*1414 FILLER_33_238
*1415 FILLER_33_245
*1416 FILLER_33_252
*1417 FILLER_33_259
*1418 FILLER_33_266
*1419 FILLER_33_273
*1420 FILLER_33_28
*1421 FILLER_33_301
*1422 FILLER_33_308
*1423 FILLER_33_315
*1424 FILLER_33_322
*1425 FILLER_33_329
*1426 FILLER_33_336
*1427 FILLER_33_343
*1428 FILLER_33_35
*1429 FILLER_33_350
*1430 FILLER_33_357
*1431 FILLER_33_42
*1432 FILLER_33_49
*1433 FILLER_33_56
*1434 FILLER_33_63
*1435 FILLER_33_7
*1436 FILLER_33_70
*1437 FILLER_33_77
*1438 FILLER_33_84
*1439 FILLER_33_91
*1440 FILLER_33_98
*1441 FILLER_34_0
*1442 FILLER_34_105
*1443 FILLER_34_112
*1444 FILLER_34_119
*1445 FILLER_34_126
*1446 FILLER_34_133
*1447 FILLER_34_14
*1448 FILLER_34_140
*1449 FILLER_34_147
*1450 FILLER_34_154
*1451 FILLER_34_161
*1452 FILLER_34_168
*1453 FILLER_34_175
*1454 FILLER_34_182
*1455 FILLER_34_189
*1456 FILLER_34_196
*1457 FILLER_34_203
*1458 FILLER_34_21
*1459 FILLER_34_210
*1460 FILLER_34_217
*1461 FILLER_34_224
*1462 FILLER_34_231
*1463 FILLER_34_238
*1464 FILLER_34_245
*1465 FILLER_34_252
*1466 FILLER_34_254
*1467 FILLER_34_28
*1468 FILLER_34_286
*1469 FILLER_34_290
*1470 FILLER_34_300
*1471 FILLER_34_307
*1472 FILLER_34_314
*1473 FILLER_34_321
*1474 FILLER_34_328
*1475 FILLER_34_335
*1476 FILLER_34_342
*1477 FILLER_34_349
*1478 FILLER_34_35
*1479 FILLER_34_356
*1480 FILLER_34_358
*1481 FILLER_34_42
*1482 FILLER_34_49
*1483 FILLER_34_56
*1484 FILLER_34_63
*1485 FILLER_34_7
*1486 FILLER_34_70
*1487 FILLER_34_77
*1488 FILLER_34_84
*1489 FILLER_34_91
*1490 FILLER_34_98
*1491 FILLER_35_0
*1492 FILLER_35_105
*1493 FILLER_35_112
*1494 FILLER_35_119
*1495 FILLER_35_126
*1496 FILLER_35_133
*1497 FILLER_35_14
*1498 FILLER_35_140
*1499 FILLER_35_147
*1500 FILLER_35_154
*1501 FILLER_35_161
*1502 FILLER_35_168
*1503 FILLER_35_175
*1504 FILLER_35_182
*1505 FILLER_35_189
*1506 FILLER_35_196
*1507 FILLER_35_203
*1508 FILLER_35_21
*1509 FILLER_35_210
*1510 FILLER_35_217
*1511 FILLER_35_224
*1512 FILLER_35_231
*1513 FILLER_35_235
*1514 FILLER_35_268
*1515 FILLER_35_275
*1516 FILLER_35_28
*1517 FILLER_35_282
*1518 FILLER_35_289
*1519 FILLER_35_296
*1520 FILLER_35_303
*1521 FILLER_35_310
*1522 FILLER_35_317
*1523 FILLER_35_324
*1524 FILLER_35_331
*1525 FILLER_35_338
*1526 FILLER_35_345
*1527 FILLER_35_35
*1528 FILLER_35_352
*1529 FILLER_35_354
*1530 FILLER_35_42
*1531 FILLER_35_49
*1532 FILLER_35_56
*1533 FILLER_35_63
*1534 FILLER_35_7
*1535 FILLER_35_70
*1536 FILLER_35_77
*1537 FILLER_35_84
*1538 FILLER_35_91
*1539 FILLER_35_98
*1540 FILLER_36_0
*1541 FILLER_36_105
*1542 FILLER_36_112
*1543 FILLER_36_119
*1544 FILLER_36_126
*1545 FILLER_36_133
*1546 FILLER_36_14
*1547 FILLER_36_140
*1548 FILLER_36_147
*1549 FILLER_36_154
*1550 FILLER_36_161
*1551 FILLER_36_168
*1552 FILLER_36_175
*1553 FILLER_36_182
*1554 FILLER_36_189
*1555 FILLER_36_196
*1556 FILLER_36_203
*1557 FILLER_36_21
*1558 FILLER_36_210
*1559 FILLER_36_217
*1560 FILLER_36_226
*1561 FILLER_36_233
*1562 FILLER_36_241
*1563 FILLER_36_248
*1564 FILLER_36_255
*1565 FILLER_36_262
*1566 FILLER_36_269
*1567 FILLER_36_276
*1568 FILLER_36_28
*1569 FILLER_36_283
*1570 FILLER_36_290
*1571 FILLER_36_297
*1572 FILLER_36_304
*1573 FILLER_36_311
*1574 FILLER_36_318
*1575 FILLER_36_325
*1576 FILLER_36_332
*1577 FILLER_36_339
*1578 FILLER_36_346
*1579 FILLER_36_35
*1580 FILLER_36_353
*1581 FILLER_36_357
*1582 FILLER_36_42
*1583 FILLER_36_49
*1584 FILLER_36_56
*1585 FILLER_36_63
*1586 FILLER_36_7
*1587 FILLER_36_70
*1588 FILLER_36_77
*1589 FILLER_36_84
*1590 FILLER_36_91
*1591 FILLER_36_98
*1592 FILLER_37_102
*1593 FILLER_37_109
*1594 FILLER_37_11
*1595 FILLER_37_116
*1596 FILLER_37_123
*1597 FILLER_37_130
*1598 FILLER_37_137
*1599 FILLER_37_144
*1600 FILLER_37_151
*1601 FILLER_37_158
*1602 FILLER_37_165
*1603 FILLER_37_172
*1604 FILLER_37_179
*1605 FILLER_37_18
*1606 FILLER_37_186
*1607 FILLER_37_193
*1608 FILLER_37_200
*1609 FILLER_37_207
*1610 FILLER_37_214
*1611 FILLER_37_221
*1612 FILLER_37_228
*1613 FILLER_37_235
*1614 FILLER_37_242
*1615 FILLER_37_249
*1616 FILLER_37_25
*1617 FILLER_37_256
*1618 FILLER_37_263
*1619 FILLER_37_270
*1620 FILLER_37_277
*1621 FILLER_37_291
*1622 FILLER_37_298
*1623 FILLER_37_305
*1624 FILLER_37_312
*1625 FILLER_37_319
*1626 FILLER_37_32
*1627 FILLER_37_326
*1628 FILLER_37_333
*1629 FILLER_37_340
*1630 FILLER_37_347
*1631 FILLER_37_354
*1632 FILLER_37_358
*1633 FILLER_37_39
*1634 FILLER_37_4
*1635 FILLER_37_46
*1636 FILLER_37_53
*1637 FILLER_37_60
*1638 FILLER_37_67
*1639 FILLER_37_74
*1640 FILLER_37_81
*1641 FILLER_37_88
*1642 FILLER_37_95
*1643 FILLER_38_0
*1644 FILLER_38_105
*1645 FILLER_38_112
*1646 FILLER_38_119
*1647 FILLER_38_126
*1648 FILLER_38_133
*1649 FILLER_38_14
*1650 FILLER_38_140
*1651 FILLER_38_147
*1652 FILLER_38_154
*1653 FILLER_38_161
*1654 FILLER_38_168
*1655 FILLER_38_175
*1656 FILLER_38_182
*1657 FILLER_38_189
*1658 FILLER_38_196
*1659 FILLER_38_203
*1660 FILLER_38_21
*1661 FILLER_38_210
*1662 FILLER_38_217
*1663 FILLER_38_224
*1664 FILLER_38_231
*1665 FILLER_38_238
*1666 FILLER_38_245
*1667 FILLER_38_252
*1668 FILLER_38_259
*1669 FILLER_38_266
*1670 FILLER_38_273
*1671 FILLER_38_28
*1672 FILLER_38_280
*1673 FILLER_38_287
*1674 FILLER_38_294
*1675 FILLER_38_301
*1676 FILLER_38_308
*1677 FILLER_38_315
*1678 FILLER_38_322
*1679 FILLER_38_329
*1680 FILLER_38_336
*1681 FILLER_38_343
*1682 FILLER_38_35
*1683 FILLER_38_350
*1684 FILLER_38_357
*1685 FILLER_38_42
*1686 FILLER_38_49
*1687 FILLER_38_56
*1688 FILLER_38_63
*1689 FILLER_38_7
*1690 FILLER_38_70
*1691 FILLER_38_77
*1692 FILLER_38_84
*1693 FILLER_38_91
*1694 FILLER_38_98
*1695 FILLER_39_0
*1696 FILLER_39_105
*1697 FILLER_39_112
*1698 FILLER_39_119
*1699 FILLER_39_126
*1700 FILLER_39_133
*1701 FILLER_39_14
*1702 FILLER_39_140
*1703 FILLER_39_147
*1704 FILLER_39_154
*1705 FILLER_39_161
*1706 FILLER_39_168
*1707 FILLER_39_175
*1708 FILLER_39_182
*1709 FILLER_39_189
*1710 FILLER_39_196
*1711 FILLER_39_203
*1712 FILLER_39_21
*1713 FILLER_39_210
*1714 FILLER_39_217
*1715 FILLER_39_224
*1716 FILLER_39_231
*1717 FILLER_39_238
*1718 FILLER_39_245
*1719 FILLER_39_252
*1720 FILLER_39_259
*1721 FILLER_39_266
*1722 FILLER_39_273
*1723 FILLER_39_28
*1724 FILLER_39_280
*1725 FILLER_39_287
*1726 FILLER_39_294
*1727 FILLER_39_301
*1728 FILLER_39_308
*1729 FILLER_39_315
*1730 FILLER_39_322
*1731 FILLER_39_329
*1732 FILLER_39_336
*1733 FILLER_39_343
*1734 FILLER_39_35
*1735 FILLER_39_350
*1736 FILLER_39_357
*1737 FILLER_39_42
*1738 FILLER_39_49
*1739 FILLER_39_56
*1740 FILLER_39_63
*1741 FILLER_39_7
*1742 FILLER_39_70
*1743 FILLER_39_77
*1744 FILLER_39_84
*1745 FILLER_39_91
*1746 FILLER_39_98
*1747 FILLER_3_0
*1748 FILLER_3_105
*1749 FILLER_3_112
*1750 FILLER_3_119
*1751 FILLER_3_126
*1752 FILLER_3_133
*1753 FILLER_3_14
*1754 FILLER_3_140
*1755 FILLER_3_147
*1756 FILLER_3_154
*1757 FILLER_3_161
*1758 FILLER_3_168
*1759 FILLER_3_175
*1760 FILLER_3_182
*1761 FILLER_3_189
*1762 FILLER_3_196
*1763 FILLER_3_203
*1764 FILLER_3_21
*1765 FILLER_3_210
*1766 FILLER_3_217
*1767 FILLER_3_224
*1768 FILLER_3_231
*1769 FILLER_3_238
*1770 FILLER_3_245
*1771 FILLER_3_252
*1772 FILLER_3_259
*1773 FILLER_3_266
*1774 FILLER_3_273
*1775 FILLER_3_28
*1776 FILLER_3_280
*1777 FILLER_3_287
*1778 FILLER_3_294
*1779 FILLER_3_301
*1780 FILLER_3_308
*1781 FILLER_3_315
*1782 FILLER_3_322
*1783 FILLER_3_329
*1784 FILLER_3_336
*1785 FILLER_3_343
*1786 FILLER_3_35
*1787 FILLER_3_350
*1788 FILLER_3_354
*1789 FILLER_3_42
*1790 FILLER_3_49
*1791 FILLER_3_56
*1792 FILLER_3_63
*1793 FILLER_3_7
*1794 FILLER_3_70
*1795 FILLER_3_77
*1796 FILLER_3_84
*1797 FILLER_3_91
*1798 FILLER_3_98
*1799 FILLER_40_0
*1800 FILLER_40_105
*1801 FILLER_40_112
*1802 FILLER_40_119
*1803 FILLER_40_126
*1804 FILLER_40_133
*1805 FILLER_40_14
*1806 FILLER_40_140
*1807 FILLER_40_147
*1808 FILLER_40_154
*1809 FILLER_40_161
*1810 FILLER_40_168
*1811 FILLER_40_175
*1812 FILLER_40_182
*1813 FILLER_40_189
*1814 FILLER_40_196
*1815 FILLER_40_203
*1816 FILLER_40_21
*1817 FILLER_40_210
*1818 FILLER_40_217
*1819 FILLER_40_224
*1820 FILLER_40_231
*1821 FILLER_40_238
*1822 FILLER_40_245
*1823 FILLER_40_252
*1824 FILLER_40_259
*1825 FILLER_40_266
*1826 FILLER_40_273
*1827 FILLER_40_28
*1828 FILLER_40_280
*1829 FILLER_40_284
*1830 FILLER_40_312
*1831 FILLER_40_319
*1832 FILLER_40_326
*1833 FILLER_40_333
*1834 FILLER_40_340
*1835 FILLER_40_347
*1836 FILLER_40_35
*1837 FILLER_40_354
*1838 FILLER_40_358
*1839 FILLER_40_42
*1840 FILLER_40_49
*1841 FILLER_40_56
*1842 FILLER_40_63
*1843 FILLER_40_7
*1844 FILLER_40_70
*1845 FILLER_40_77
*1846 FILLER_40_84
*1847 FILLER_40_91
*1848 FILLER_40_98
*1849 FILLER_41_0
*1850 FILLER_41_105
*1851 FILLER_41_112
*1852 FILLER_41_119
*1853 FILLER_41_126
*1854 FILLER_41_133
*1855 FILLER_41_14
*1856 FILLER_41_140
*1857 FILLER_41_147
*1858 FILLER_41_154
*1859 FILLER_41_161
*1860 FILLER_41_168
*1861 FILLER_41_175
*1862 FILLER_41_182
*1863 FILLER_41_189
*1864 FILLER_41_196
*1865 FILLER_41_203
*1866 FILLER_41_21
*1867 FILLER_41_210
*1868 FILLER_41_217
*1869 FILLER_41_224
*1870 FILLER_41_231
*1871 FILLER_41_238
*1872 FILLER_41_245
*1873 FILLER_41_252
*1874 FILLER_41_259
*1875 FILLER_41_28
*1876 FILLER_41_297
*1877 FILLER_41_301
*1878 FILLER_41_311
*1879 FILLER_41_318
*1880 FILLER_41_325
*1881 FILLER_41_332
*1882 FILLER_41_339
*1883 FILLER_41_346
*1884 FILLER_41_35
*1885 FILLER_41_353
*1886 FILLER_41_357
*1887 FILLER_41_42
*1888 FILLER_41_49
*1889 FILLER_41_56
*1890 FILLER_41_63
*1891 FILLER_41_7
*1892 FILLER_41_70
*1893 FILLER_41_77
*1894 FILLER_41_84
*1895 FILLER_41_91
*1896 FILLER_41_98
*1897 FILLER_42_0
*1898 FILLER_42_105
*1899 FILLER_42_112
*1900 FILLER_42_119
*1901 FILLER_42_126
*1902 FILLER_42_133
*1903 FILLER_42_14
*1904 FILLER_42_140
*1905 FILLER_42_147
*1906 FILLER_42_154
*1907 FILLER_42_161
*1908 FILLER_42_168
*1909 FILLER_42_175
*1910 FILLER_42_182
*1911 FILLER_42_189
*1912 FILLER_42_196
*1913 FILLER_42_203
*1914 FILLER_42_21
*1915 FILLER_42_210
*1916 FILLER_42_217
*1917 FILLER_42_224
*1918 FILLER_42_231
*1919 FILLER_42_238
*1920 FILLER_42_245
*1921 FILLER_42_252
*1922 FILLER_42_259
*1923 FILLER_42_266
*1924 FILLER_42_270
*1925 FILLER_42_275
*1926 FILLER_42_28
*1927 FILLER_42_282
*1928 FILLER_42_289
*1929 FILLER_42_296
*1930 FILLER_42_303
*1931 FILLER_42_310
*1932 FILLER_42_317
*1933 FILLER_42_324
*1934 FILLER_42_331
*1935 FILLER_42_338
*1936 FILLER_42_345
*1937 FILLER_42_35
*1938 FILLER_42_352
*1939 FILLER_42_354
*1940 FILLER_42_42
*1941 FILLER_42_49
*1942 FILLER_42_56
*1943 FILLER_42_63
*1944 FILLER_42_7
*1945 FILLER_42_70
*1946 FILLER_42_77
*1947 FILLER_42_84
*1948 FILLER_42_91
*1949 FILLER_42_98
*1950 FILLER_43_0
*1951 FILLER_43_105
*1952 FILLER_43_112
*1953 FILLER_43_119
*1954 FILLER_43_126
*1955 FILLER_43_133
*1956 FILLER_43_14
*1957 FILLER_43_140
*1958 FILLER_43_147
*1959 FILLER_43_154
*1960 FILLER_43_161
*1961 FILLER_43_168
*1962 FILLER_43_175
*1963 FILLER_43_182
*1964 FILLER_43_189
*1965 FILLER_43_196
*1966 FILLER_43_203
*1967 FILLER_43_21
*1968 FILLER_43_210
*1969 FILLER_43_217
*1970 FILLER_43_224
*1971 FILLER_43_231
*1972 FILLER_43_238
*1973 FILLER_43_245
*1974 FILLER_43_252
*1975 FILLER_43_259
*1976 FILLER_43_266
*1977 FILLER_43_273
*1978 FILLER_43_28
*1979 FILLER_43_280
*1980 FILLER_43_287
*1981 FILLER_43_294
*1982 FILLER_43_301
*1983 FILLER_43_308
*1984 FILLER_43_315
*1985 FILLER_43_322
*1986 FILLER_43_329
*1987 FILLER_43_336
*1988 FILLER_43_343
*1989 FILLER_43_35
*1990 FILLER_43_350
*1991 FILLER_43_357
*1992 FILLER_43_42
*1993 FILLER_43_49
*1994 FILLER_43_56
*1995 FILLER_43_63
*1996 FILLER_43_7
*1997 FILLER_43_70
*1998 FILLER_43_77
*1999 FILLER_43_84
*2000 FILLER_43_91
*2001 FILLER_43_98
*2002 FILLER_44_0
*2003 FILLER_44_105
*2004 FILLER_44_112
*2005 FILLER_44_119
*2006 FILLER_44_126
*2007 FILLER_44_133
*2008 FILLER_44_14
*2009 FILLER_44_140
*2010 FILLER_44_147
*2011 FILLER_44_154
*2012 FILLER_44_161
*2013 FILLER_44_168
*2014 FILLER_44_175
*2015 FILLER_44_182
*2016 FILLER_44_189
*2017 FILLER_44_196
*2018 FILLER_44_203
*2019 FILLER_44_21
*2020 FILLER_44_210
*2021 FILLER_44_217
*2022 FILLER_44_224
*2023 FILLER_44_231
*2024 FILLER_44_238
*2025 FILLER_44_245
*2026 FILLER_44_252
*2027 FILLER_44_259
*2028 FILLER_44_266
*2029 FILLER_44_273
*2030 FILLER_44_28
*2031 FILLER_44_280
*2032 FILLER_44_287
*2033 FILLER_44_294
*2034 FILLER_44_301
*2035 FILLER_44_308
*2036 FILLER_44_315
*2037 FILLER_44_322
*2038 FILLER_44_329
*2039 FILLER_44_336
*2040 FILLER_44_343
*2041 FILLER_44_35
*2042 FILLER_44_350
*2043 FILLER_44_357
*2044 FILLER_44_42
*2045 FILLER_44_49
*2046 FILLER_44_56
*2047 FILLER_44_63
*2048 FILLER_44_7
*2049 FILLER_44_70
*2050 FILLER_44_77
*2051 FILLER_44_84
*2052 FILLER_44_91
*2053 FILLER_44_98
*2054 FILLER_45_0
*2055 FILLER_45_105
*2056 FILLER_45_112
*2057 FILLER_45_119
*2058 FILLER_45_126
*2059 FILLER_45_133
*2060 FILLER_45_14
*2061 FILLER_45_140
*2062 FILLER_45_147
*2063 FILLER_45_154
*2064 FILLER_45_161
*2065 FILLER_45_168
*2066 FILLER_45_175
*2067 FILLER_45_182
*2068 FILLER_45_189
*2069 FILLER_45_196
*2070 FILLER_45_203
*2071 FILLER_45_21
*2072 FILLER_45_210
*2073 FILLER_45_217
*2074 FILLER_45_224
*2075 FILLER_45_231
*2076 FILLER_45_238
*2077 FILLER_45_245
*2078 FILLER_45_252
*2079 FILLER_45_259
*2080 FILLER_45_266
*2081 FILLER_45_273
*2082 FILLER_45_28
*2083 FILLER_45_280
*2084 FILLER_45_287
*2085 FILLER_45_294
*2086 FILLER_45_301
*2087 FILLER_45_308
*2088 FILLER_45_315
*2089 FILLER_45_322
*2090 FILLER_45_329
*2091 FILLER_45_336
*2092 FILLER_45_343
*2093 FILLER_45_35
*2094 FILLER_45_350
*2095 FILLER_45_357
*2096 FILLER_45_42
*2097 FILLER_45_49
*2098 FILLER_45_56
*2099 FILLER_45_63
*2100 FILLER_45_7
*2101 FILLER_45_70
*2102 FILLER_45_77
*2103 FILLER_45_84
*2104 FILLER_45_91
*2105 FILLER_45_98
*2106 FILLER_46_0
*2107 FILLER_46_105
*2108 FILLER_46_112
*2109 FILLER_46_119
*2110 FILLER_46_126
*2111 FILLER_46_133
*2112 FILLER_46_14
*2113 FILLER_46_140
*2114 FILLER_46_147
*2115 FILLER_46_154
*2116 FILLER_46_161
*2117 FILLER_46_168
*2118 FILLER_46_175
*2119 FILLER_46_182
*2120 FILLER_46_189
*2121 FILLER_46_196
*2122 FILLER_46_203
*2123 FILLER_46_21
*2124 FILLER_46_210
*2125 FILLER_46_217
*2126 FILLER_46_224
*2127 FILLER_46_231
*2128 FILLER_46_238
*2129 FILLER_46_245
*2130 FILLER_46_252
*2131 FILLER_46_259
*2132 FILLER_46_266
*2133 FILLER_46_273
*2134 FILLER_46_28
*2135 FILLER_46_280
*2136 FILLER_46_287
*2137 FILLER_46_294
*2138 FILLER_46_301
*2139 FILLER_46_308
*2140 FILLER_46_315
*2141 FILLER_46_322
*2142 FILLER_46_329
*2143 FILLER_46_336
*2144 FILLER_46_343
*2145 FILLER_46_35
*2146 FILLER_46_350
*2147 FILLER_46_357
*2148 FILLER_46_42
*2149 FILLER_46_49
*2150 FILLER_46_56
*2151 FILLER_46_63
*2152 FILLER_46_7
*2153 FILLER_46_70
*2154 FILLER_46_77
*2155 FILLER_46_84
*2156 FILLER_46_91
*2157 FILLER_46_98
*2158 FILLER_47_0
*2159 FILLER_47_105
*2160 FILLER_47_112
*2161 FILLER_47_119
*2162 FILLER_47_126
*2163 FILLER_47_133
*2164 FILLER_47_14
*2165 FILLER_47_140
*2166 FILLER_47_147
*2167 FILLER_47_154
*2168 FILLER_47_161
*2169 FILLER_47_168
*2170 FILLER_47_175
*2171 FILLER_47_182
*2172 FILLER_47_189
*2173 FILLER_47_196
*2174 FILLER_47_203
*2175 FILLER_47_21
*2176 FILLER_47_210
*2177 FILLER_47_217
*2178 FILLER_47_224
*2179 FILLER_47_231
*2180 FILLER_47_238
*2181 FILLER_47_245
*2182 FILLER_47_252
*2183 FILLER_47_259
*2184 FILLER_47_266
*2185 FILLER_47_273
*2186 FILLER_47_28
*2187 FILLER_47_280
*2188 FILLER_47_287
*2189 FILLER_47_294
*2190 FILLER_47_301
*2191 FILLER_47_308
*2192 FILLER_47_315
*2193 FILLER_47_322
*2194 FILLER_47_329
*2195 FILLER_47_336
*2196 FILLER_47_343
*2197 FILLER_47_35
*2198 FILLER_47_350
*2199 FILLER_47_357
*2200 FILLER_47_42
*2201 FILLER_47_49
*2202 FILLER_47_56
*2203 FILLER_47_63
*2204 FILLER_47_7
*2205 FILLER_47_70
*2206 FILLER_47_77
*2207 FILLER_47_84
*2208 FILLER_47_91
*2209 FILLER_47_98
*2210 FILLER_48_102
*2211 FILLER_48_109
*2212 FILLER_48_11
*2213 FILLER_48_116
*2214 FILLER_48_123
*2215 FILLER_48_130
*2216 FILLER_48_137
*2217 FILLER_48_144
*2218 FILLER_48_151
*2219 FILLER_48_158
*2220 FILLER_48_165
*2221 FILLER_48_172
*2222 FILLER_48_179
*2223 FILLER_48_18
*2224 FILLER_48_186
*2225 FILLER_48_193
*2226 FILLER_48_200
*2227 FILLER_48_207
*2228 FILLER_48_214
*2229 FILLER_48_221
*2230 FILLER_48_228
*2231 FILLER_48_235
*2232 FILLER_48_242
*2233 FILLER_48_249
*2234 FILLER_48_25
*2235 FILLER_48_256
*2236 FILLER_48_263
*2237 FILLER_48_270
*2238 FILLER_48_277
*2239 FILLER_48_284
*2240 FILLER_48_291
*2241 FILLER_48_298
*2242 FILLER_48_305
*2243 FILLER_48_312
*2244 FILLER_48_319
*2245 FILLER_48_32
*2246 FILLER_48_326
*2247 FILLER_48_333
*2248 FILLER_48_340
*2249 FILLER_48_347
*2250 FILLER_48_354
*2251 FILLER_48_39
*2252 FILLER_48_4
*2253 FILLER_48_46
*2254 FILLER_48_53
*2255 FILLER_48_60
*2256 FILLER_48_67
*2257 FILLER_48_74
*2258 FILLER_48_81
*2259 FILLER_48_88
*2260 FILLER_48_95
*2261 FILLER_49_0
*2262 FILLER_49_105
*2263 FILLER_49_112
*2264 FILLER_49_119
*2265 FILLER_49_126
*2266 FILLER_49_133
*2267 FILLER_49_14
*2268 FILLER_49_140
*2269 FILLER_49_147
*2270 FILLER_49_154
*2271 FILLER_49_161
*2272 FILLER_49_168
*2273 FILLER_49_175
*2274 FILLER_49_182
*2275 FILLER_49_189
*2276 FILLER_49_196
*2277 FILLER_49_203
*2278 FILLER_49_21
*2279 FILLER_49_210
*2280 FILLER_49_217
*2281 FILLER_49_224
*2282 FILLER_49_231
*2283 FILLER_49_238
*2284 FILLER_49_245
*2285 FILLER_49_252
*2286 FILLER_49_259
*2287 FILLER_49_266
*2288 FILLER_49_273
*2289 FILLER_49_28
*2290 FILLER_49_280
*2291 FILLER_49_287
*2292 FILLER_49_294
*2293 FILLER_49_301
*2294 FILLER_49_308
*2295 FILLER_49_315
*2296 FILLER_49_322
*2297 FILLER_49_329
*2298 FILLER_49_336
*2299 FILLER_49_343
*2300 FILLER_49_35
*2301 FILLER_49_350
*2302 FILLER_49_357
*2303 FILLER_49_42
*2304 FILLER_49_49
*2305 FILLER_49_56
*2306 FILLER_49_63
*2307 FILLER_49_7
*2308 FILLER_49_70
*2309 FILLER_49_77
*2310 FILLER_49_84
*2311 FILLER_49_91
*2312 FILLER_49_98
*2313 FILLER_4_0
*2314 FILLER_4_105
*2315 FILLER_4_112
*2316 FILLER_4_119
*2317 FILLER_4_126
*2318 FILLER_4_133
*2319 FILLER_4_14
*2320 FILLER_4_140
*2321 FILLER_4_147
*2322 FILLER_4_154
*2323 FILLER_4_161
*2324 FILLER_4_168
*2325 FILLER_4_175
*2326 FILLER_4_182
*2327 FILLER_4_189
*2328 FILLER_4_196
*2329 FILLER_4_203
*2330 FILLER_4_21
*2331 FILLER_4_210
*2332 FILLER_4_217
*2333 FILLER_4_224
*2334 FILLER_4_231
*2335 FILLER_4_238
*2336 FILLER_4_245
*2337 FILLER_4_252
*2338 FILLER_4_259
*2339 FILLER_4_266
*2340 FILLER_4_273
*2341 FILLER_4_28
*2342 FILLER_4_280
*2343 FILLER_4_287
*2344 FILLER_4_294
*2345 FILLER_4_301
*2346 FILLER_4_308
*2347 FILLER_4_315
*2348 FILLER_4_322
*2349 FILLER_4_329
*2350 FILLER_4_336
*2351 FILLER_4_343
*2352 FILLER_4_35
*2353 FILLER_4_350
*2354 FILLER_4_357
*2355 FILLER_4_42
*2356 FILLER_4_49
*2357 FILLER_4_56
*2358 FILLER_4_63
*2359 FILLER_4_7
*2360 FILLER_4_70
*2361 FILLER_4_77
*2362 FILLER_4_84
*2363 FILLER_4_91
*2364 FILLER_4_98
*2365 FILLER_5_0
*2366 FILLER_5_105
*2367 FILLER_5_112
*2368 FILLER_5_119
*2369 FILLER_5_126
*2370 FILLER_5_133
*2371 FILLER_5_14
*2372 FILLER_5_140
*2373 FILLER_5_147
*2374 FILLER_5_154
*2375 FILLER_5_161
*2376 FILLER_5_168
*2377 FILLER_5_175
*2378 FILLER_5_182
*2379 FILLER_5_189
*2380 FILLER_5_196
*2381 FILLER_5_203
*2382 FILLER_5_21
*2383 FILLER_5_210
*2384 FILLER_5_217
*2385 FILLER_5_224
*2386 FILLER_5_231
*2387 FILLER_5_238
*2388 FILLER_5_245
*2389 FILLER_5_252
*2390 FILLER_5_259
*2391 FILLER_5_266
*2392 FILLER_5_273
*2393 FILLER_5_28
*2394 FILLER_5_280
*2395 FILLER_5_287
*2396 FILLER_5_294
*2397 FILLER_5_301
*2398 FILLER_5_308
*2399 FILLER_5_315
*2400 FILLER_5_322
*2401 FILLER_5_329
*2402 FILLER_5_336
*2403 FILLER_5_343
*2404 FILLER_5_35
*2405 FILLER_5_350
*2406 FILLER_5_357
*2407 FILLER_5_42
*2408 FILLER_5_49
*2409 FILLER_5_56
*2410 FILLER_5_63
*2411 FILLER_5_7
*2412 FILLER_5_70
*2413 FILLER_5_77
*2414 FILLER_5_84
*2415 FILLER_5_91
*2416 FILLER_5_98
*2417 FILLER_6_0
*2418 FILLER_6_105
*2419 FILLER_6_112
*2420 FILLER_6_119
*2421 FILLER_6_126
*2422 FILLER_6_133
*2423 FILLER_6_14
*2424 FILLER_6_140
*2425 FILLER_6_147
*2426 FILLER_6_154
*2427 FILLER_6_161
*2428 FILLER_6_168
*2429 FILLER_6_175
*2430 FILLER_6_182
*2431 FILLER_6_189
*2432 FILLER_6_196
*2433 FILLER_6_203
*2434 FILLER_6_21
*2435 FILLER_6_210
*2436 FILLER_6_217
*2437 FILLER_6_224
*2438 FILLER_6_231
*2439 FILLER_6_238
*2440 FILLER_6_245
*2441 FILLER_6_252
*2442 FILLER_6_259
*2443 FILLER_6_266
*2444 FILLER_6_273
*2445 FILLER_6_28
*2446 FILLER_6_280
*2447 FILLER_6_287
*2448 FILLER_6_294
*2449 FILLER_6_301
*2450 FILLER_6_308
*2451 FILLER_6_315
*2452 FILLER_6_322
*2453 FILLER_6_329
*2454 FILLER_6_336
*2455 FILLER_6_343
*2456 FILLER_6_35
*2457 FILLER_6_350
*2458 FILLER_6_357
*2459 FILLER_6_42
*2460 FILLER_6_49
*2461 FILLER_6_56
*2462 FILLER_6_63
*2463 FILLER_6_7
*2464 FILLER_6_70
*2465 FILLER_6_77
*2466 FILLER_6_84
*2467 FILLER_6_91
*2468 FILLER_6_98
*2469 FILLER_7_0
*2470 FILLER_7_105
*2471 FILLER_7_112
*2472 FILLER_7_119
*2473 FILLER_7_126
*2474 FILLER_7_133
*2475 FILLER_7_14
*2476 FILLER_7_140
*2477 FILLER_7_147
*2478 FILLER_7_154
*2479 FILLER_7_161
*2480 FILLER_7_168
*2481 FILLER_7_175
*2482 FILLER_7_182
*2483 FILLER_7_189
*2484 FILLER_7_196
*2485 FILLER_7_203
*2486 FILLER_7_21
*2487 FILLER_7_210
*2488 FILLER_7_217
*2489 FILLER_7_224
*2490 FILLER_7_231
*2491 FILLER_7_238
*2492 FILLER_7_245
*2493 FILLER_7_252
*2494 FILLER_7_259
*2495 FILLER_7_266
*2496 FILLER_7_273
*2497 FILLER_7_28
*2498 FILLER_7_280
*2499 FILLER_7_287
*2500 FILLER_7_294
*2501 FILLER_7_301
*2502 FILLER_7_308
*2503 FILLER_7_315
*2504 FILLER_7_322
*2505 FILLER_7_329
*2506 FILLER_7_336
*2507 FILLER_7_343
*2508 FILLER_7_35
*2509 FILLER_7_350
*2510 FILLER_7_357
*2511 FILLER_7_42
*2512 FILLER_7_49
*2513 FILLER_7_56
*2514 FILLER_7_63
*2515 FILLER_7_7
*2516 FILLER_7_70
*2517 FILLER_7_77
*2518 FILLER_7_84
*2519 FILLER_7_91
*2520 FILLER_7_98
*2521 FILLER_8_102
*2522 FILLER_8_109
*2523 FILLER_8_11
*2524 FILLER_8_116
*2525 FILLER_8_123
*2526 FILLER_8_130
*2527 FILLER_8_137
*2528 FILLER_8_144
*2529 FILLER_8_151
*2530 FILLER_8_158
*2531 FILLER_8_165
*2532 FILLER_8_172
*2533 FILLER_8_179
*2534 FILLER_8_18
*2535 FILLER_8_186
*2536 FILLER_8_193
*2537 FILLER_8_200
*2538 FILLER_8_207
*2539 FILLER_8_214
*2540 FILLER_8_221
*2541 FILLER_8_228
*2542 FILLER_8_235
*2543 FILLER_8_242
*2544 FILLER_8_249
*2545 FILLER_8_25
*2546 FILLER_8_256
*2547 FILLER_8_263
*2548 FILLER_8_270
*2549 FILLER_8_277
*2550 FILLER_8_284
*2551 FILLER_8_291
*2552 FILLER_8_298
*2553 FILLER_8_305
*2554 FILLER_8_312
*2555 FILLER_8_319
*2556 FILLER_8_32
*2557 FILLER_8_326
*2558 FILLER_8_333
*2559 FILLER_8_340
*2560 FILLER_8_347
*2561 FILLER_8_354
*2562 FILLER_8_358
*2563 FILLER_8_39
*2564 FILLER_8_4
*2565 FILLER_8_46
*2566 FILLER_8_53
*2567 FILLER_8_60
*2568 FILLER_8_67
*2569 FILLER_8_74
*2570 FILLER_8_81
*2571 FILLER_8_88
*2572 FILLER_8_95
*2573 FILLER_9_0
*2574 FILLER_9_105
*2575 FILLER_9_112
*2576 FILLER_9_119
*2577 FILLER_9_126
*2578 FILLER_9_133
*2579 FILLER_9_14
*2580 FILLER_9_140
*2581 FILLER_9_147
*2582 FILLER_9_154
*2583 FILLER_9_161
*2584 FILLER_9_168
*2585 FILLER_9_175
*2586 FILLER_9_182
*2587 FILLER_9_189
*2588 FILLER_9_196
*2589 FILLER_9_203
*2590 FILLER_9_21
*2591 FILLER_9_210
*2592 FILLER_9_217
*2593 FILLER_9_224
*2594 FILLER_9_231
*2595 FILLER_9_238
*2596 FILLER_9_245
*2597 FILLER_9_252
*2598 FILLER_9_259
*2599 FILLER_9_266
*2600 FILLER_9_273
*2601 FILLER_9_28
*2602 FILLER_9_280
*2603 FILLER_9_287
*2604 FILLER_9_294
*2605 FILLER_9_301
*2606 FILLER_9_308
*2607 FILLER_9_315
*2608 FILLER_9_322
*2609 FILLER_9_329
*2610 FILLER_9_336
*2611 FILLER_9_343
*2612 FILLER_9_35
*2613 FILLER_9_350
*2614 FILLER_9_354
*2615 FILLER_9_42
*2616 FILLER_9_49
*2617 FILLER_9_56
*2618 FILLER_9_63
*2619 FILLER_9_7
*2620 FILLER_9_70
*2621 FILLER_9_77
*2622 FILLER_9_84
*2623 FILLER_9_91
*2624 FILLER_9_98
*2625 _044_
*2626 _045_
*2627 _046_
*2628 _047_
*2629 _048_
*2630 _049_
*2631 _050_
*2632 _051_
*2633 _052_
*2634 _053_
*2635 _054_
*2636 _055_
*2637 _056_
*2638 _057_
*2639 _058_
*2640 _059_
*2641 _060_
*2642 _061_
*2643 _062_
*2644 _063_
*2645 _064_
*2646 _065_
*2647 _066_
*2648 _067_
*2649 _068_
*2650 _069_
*2651 _070_
*2652 _071_
*2653 _072_
*2654 _073_
*2655 _074_
*2656 _074__22
*2657 _075_
*2658 _075__29
*2659 _076_
*2660 _076__28
*2661 _077_
*2662 _077__26
*2663 _078_
*2664 _078__24
*2665 _079_
*2666 _079__15
*2667 _080_
*2668 _080__25
*2669 _081_
*2670 _081__27
*2671 _082_
*2672 _082__23
*2673 _083_
*2674 _083__17
*2675 _084_
*2676 _084__18
*2677 _085_
*2678 _085__19
*2679 _086_
*2680 _086__20
*2681 _087_
*2682 _087__21
*2683 _088_
*2684 _088__30
*2685 _089_
*2686 _089__16
*2687 clkbuf_0_clk
*2688 clkbuf_0_clk_regs
*2689 clkbuf_1_0__f_clk
*2690 clkbuf_2_0__f_clk_regs
*2691 clkbuf_2_1__f_clk_regs
*2692 clkbuf_2_2__f_clk_regs
*2693 clkbuf_2_3__f_clk_regs
*2694 clkbuf_regs_0_clk
*2695 hold32
*2696 hold33
*2697 hold34
*2698 hold35
*2699 hold36
*2700 hold37
*2701 hold38
*2702 hold39
*2703 hold40
*2704 hold41
*2705 hold42
*2706 hold43
*2707 hold44
*2708 hold45
*2709 hold46
*2710 input1
*2711 input2
*2712 input3
*2713 input4
*2714 input5
*2715 input6
*2716 ook_digital_system
*2717 ook_digital_system_31
*2718 output10
*2719 output11
*2720 output12
*2721 output13
*2722 output14
*2723 output7
*2724 output8
*2725 output9
*2726 rtl_buf_clk
*2727 rtl_buf_rst

*PORTS
clk I
clk_ref O
data_in_tx I
in_tieoff O
in_tieon O
q0 I
q0_d O
q1 I
q1_d O
q2 I
q2_d O
q3 I
q3_d O
rst O
rst_n_in I
vctrl O
vctrl_n O

*D_NET *3 0.0269837
*CONN
*P clk I
*I *2694:A I *D sg13cmos5l_buf_8
*I *2687:A I *D sg13cmos5l_buf_8
*CAP
1 clk 0.000170472
2 *2694:A 0
3 *2687:A 0.000137798
4 *3:65 0.000689411
5 *3:49 0.00222213
6 *3:43 0.00319907
7 *3:32 0.0016273
8 *3:30 0.00021161
9 *3:26 0.00277835
10 *3:10 0.00922127
11 *3:8 0.00672625
12 *2687:A *69:10 0
13 *2687:A *105:79 0
14 *3:26 *2673:RESET_B 0
15 *3:26 *2688:A 0
16 *3:26 *2692:A 0
17 *3:26 *50:6 0
18 *3:26 *50:11 0
19 *3:26 *50:27 0
20 *3:26 *54:10 0
21 *3:26 *54:30 0
22 *3:26 *54:38 0
23 *3:26 *77:10 0
24 *3:26 *108:6 0
25 *3:30 *50:27 0
26 *3:30 *50:34 0
27 *3:32 *50:34 0
28 *3:43 *2625:A 0
29 *3:43 *2650:B1 0
30 *3:43 *2652:A1 0
31 *3:43 *2652:A2 0
32 *3:43 *2652:B1 0
33 *3:43 *2665:RESET_B 0
34 *3:43 *50:34 0
35 *3:43 *93:10 0
36 *3:43 *108:6 0
37 *3:49 *2629:A 0
38 *3:49 *2639:B 0
39 *3:49 *2641:A2 0
40 *3:49 *2652:A1 0
41 *3:49 *2707:A 0
42 *3:49 *22:10 0
43 *3:49 *23:10 0
44 *3:49 *37:10 0
45 *3:49 *37:25 0
46 *3:49 *44:33 0
47 *3:49 *60:33 0
48 *3:49 *63:14 0
49 *3:49 *63:52 0
50 *3:49 *65:8 0
51 *3:49 *92:8 0
52 *3:49 *101:8 0
53 *3:49 *105:37 0
54 *3:65 *2639:B 0
55 *3:65 *34:46 0
56 *3:65 *38:8 0
57 *3:65 *105:79 0
*RES
1 clk *3:8 2.2145 
2 *3:8 *3:10 72.0382 
3 *3:10 *3:26 47.3259 
4 *3:26 *3:30 1.1845 
5 *3:30 *3:32 0.9682 
6 *3:32 *3:43 35.9753 
7 *3:43 *3:49 37.7263 
8 *3:49 *3:65 45.9019 
9 *3:65 *2687:A 21.1845 
10 *3:30 *2694:A 20 
*END

*D_NET *4 0.000566215
*CONN
*P clk_ref O
*I *2723:X O *D sg13cmos5l_buf_1
*CAP
1 clk_ref 0.000283108
2 *2723:X 0.000283108
3 clk_ref *68:10 0
*RES
1 *2723:X clk_ref 43.2445 
*END

*D_NET *5 0.000575807
*CONN
*P data_in_tx I
*I *2710:A I *D sg13cmos5l_buf_1
*CAP
1 data_in_tx 0.000287903
2 *2710:A 0.000287903
*RES
1 data_in_tx *2710:A 43.3578 
*END

*D_NET *6 0.000604434
*CONN
*P in_tieoff O
*I *2716:L_LO O *D sg13cmos5l_tielo
*CAP
1 in_tieoff 0.000302217
2 *2716:L_LO 0.000302217
*RES
1 *2716:L_LO in_tieoff 43.5741 
*END

*D_NET *7 0.00056775
*CONN
*P in_tieon O
*I *2717:L_HI O *D sg13cmos5l_tiehi
*CAP
1 in_tieon 0.000283875
2 *2717:L_HI 0.000283875
*RES
1 *2717:L_HI in_tieon 43.1415 
*END

*D_NET *8 0.0007506
*CONN
*P q0 I
*I *2711:A I *D sg13cmos5l_buf_1
*CAP
1 q0 0.0003753
2 *2711:A 0.0003753
*RES
1 q0 *2711:A 43.7904 
*END

*D_NET *9 0.000474125
*CONN
*P q0_d O
*I *2724:X O *D sg13cmos5l_buf_1
*CAP
1 q0_d 0.000237063
2 *2724:X 0.000237063
*RES
1 *2724:X q0_d 42.7089 
*END

*D_NET *10 0.000477962
*CONN
*P q1 I
*I *2712:A I *D sg13cmos5l_buf_1
*CAP
1 q1 0.000238981
2 *2712:A 0.000238981
3 *2712:A *86:8 0
*RES
1 q1 *2712:A 42.9252 
*END

*D_NET *11 0.00054039
*CONN
*P q1_d O
*I *2725:X O *D sg13cmos5l_buf_1
*CAP
1 q1_d 0.000270195
2 *2725:X 0.000270195
*RES
1 *2725:X q1_d 43.1415 
*END

*D_NET *12 0.000811855
*CONN
*P q2 I
*I *2713:A I *D sg13cmos5l_buf_1
*CAP
1 q2 0.000405928
2 *2713:A 0.000405928
3 *2713:A *96:6 0
*RES
1 q2 *2713:A 44.223 
*END

*D_NET *13 0.000799537
*CONN
*P q2_d O
*I *2718:X O *D sg13cmos5l_buf_1
*CAP
1 q2_d 0.000294928
2 *2718:X 0.000294928
3 q2_d *108:18 0.000209681
*RES
1 *2718:X q2_d 43.5741 
*END

*D_NET *14 0.000577525
*CONN
*P q3 I
*I *2714:A I *D sg13cmos5l_buf_1
*CAP
1 q3 0.000288763
2 *2714:A 0.000288763
*RES
1 q3 *2714:A 43.3578 
*END

*D_NET *15 0.000329379
*CONN
*P q3_d O
*I *2719:X O *D sg13cmos5l_buf_1
*CAP
1 q3_d 0.00016469
2 *2719:X 0.00016469
*RES
1 *2719:X q3_d 42.1733 
*END

*D_NET *16 0.000951627
*CONN
*P rst O
*I *2720:X O *D sg13cmos5l_buf_1
*CAP
1 rst 0.000475814
2 *2720:X 0.000475814
3 rst *2641:B1 0
4 rst *2641:A1 0
5 rst *2709:A 0
6 rst *2720:A 0
7 rst *2727:A 0
8 rst *105:87 0
*RES
1 *2720:X rst 45.4075 
*END

*D_NET *17 0.000377772
*CONN
*P rst_n_in I
*I *2715:A I *D sg13cmos5l_buf_1
*CAP
1 rst_n_in 0.000188886
2 *2715:A 0.000188886
*RES
1 rst_n_in *2715:A 42.4926 
*END

*D_NET *18 0.000329379
*CONN
*P vctrl O
*I *2721:X O *D sg13cmos5l_buf_1
*CAP
1 vctrl 0.00016469
2 *2721:X 0.00016469
*RES
1 *2721:X vctrl 42.1733 
*END

*D_NET *19 0.00054893
*CONN
*P vctrl_n O
*I *2722:X O *D sg13cmos5l_buf_1
*CAP
1 vctrl_n 0.000274465
2 *2722:X 0.000274465
*RES
1 *2722:X vctrl_n 43.1312 
*END

*D_NET *20 0.000994661
*CONN
*I *2703:A I *D sg13cmos5l_dlygate4sd3_1
*I *2635:Y O *D sg13cmos5l_a21oi_1
*CAP
1 *2703:A 0.00017748
2 *2635:Y 0.00025314
3 *20:10 0.00043062
4 *2703:A *2645:A1 0
5 *2703:A *34:18 0
6 *20:10 *2634:A1 2.20966e-05
7 *20:10 *2635:B1 0.000111324
8 *20:10 *34:18 0
*RES
1 *2635:Y *20:10 42.06 
2 *20:10 *2703:A 41.4008 
*END

*D_NET *21 0.0014598
*CONN
*I *2657:D I *D sg13cmos5l_dfrbpq_1
*I *2639:X O *D sg13cmos5l_and2_1
*CAP
1 *2657:D 3.71228e-05
2 *2639:X 0.000285548
3 *21:10 0.000322671
4 *2657:D *2646:A2 4.77534e-05
5 *21:10 *2639:B 0
6 *21:10 *2646:B2 0
7 *21:10 *34:46 0.000766707
*RES
1 *2639:X *21:10 44.1612 
2 *21:10 *2657:D 40.3193 
*END

*D_NET *22 0.00166887
*CONN
*I *2659:D I *D sg13cmos5l_dfrbpq_1
*I *2642:Y O *D sg13cmos5l_nor2b_1
*CAP
1 *2659:D 0
2 *2642:Y 0.000518681
3 *22:10 0.000518681
4 *22:10 *2642:A 0.000144942
5 *22:10 *2642:B_N 0
6 *22:10 *30:8 0.000341621
7 *22:10 *37:25 0
8 *22:10 *82:8 0
9 *22:10 *101:8 0
10 *22:10 *102:24 0.000144942
11 *3:49 *22:10 0
*RES
1 *2642:Y *22:10 46.4169 
2 *22:10 *2659:D 40 
*END

*D_NET *23 0.00315775
*CONN
*I *2707:A I *D sg13cmos5l_dlygate4sd3_1
*I *2646:Y O *D sg13cmos5l_a221oi_1
*CAP
1 *2707:A 0.000166776
2 *2646:Y 0.00058882
3 *23:10 0.000755596
4 *2707:A *2641:A1 0
5 *2707:A *2641:A2 0.000147614
6 *2707:A *37:25 0
7 *23:10 *2646:B1 0.000306739
8 *23:10 *37:10 0
9 *23:10 *53:10 0
10 *23:10 *85:8 0.00119221
11 *3:49 *2707:A 0
12 *3:49 *23:10 0
*RES
1 *2646:Y *23:10 48.0855 
2 *23:10 *2707:A 41.6171 
*END

*D_NET *24 0.00211017
*CONN
*I *2705:A I *D sg13cmos5l_dlygate4sd3_1
*I *2650:Y O *D sg13cmos5l_a21oi_1
*CAP
1 *2705:A 4.25262e-05
2 *2650:Y 0.000389935
3 *24:8 0.000432461
4 *2705:A *2647:B 8.0216e-05
5 *2705:A *47:10 8.0216e-05
6 *24:8 *2650:A1 0
7 *24:8 *42:12 0.00108481
8 *24:8 *98:30 0
*RES
1 *2650:Y *24:8 45.047 
2 *24:8 *2705:A 40.5356 
*END

*D_NET *25 0.000902215
*CONN
*I *2700:A I *D sg13cmos5l_dlygate4sd3_1
*I *2652:Y O *D sg13cmos5l_a21oi_1
*CAP
1 *2700:A 0.000159352
2 *2652:Y 0.000155175
3 *25:10 0.000314526
4 *2700:A *45:39 0.000175937
5 *2700:A *50:34 0
6 *25:10 *45:39 9.72251e-05
*RES
1 *2652:Y *25:10 41.8128 
2 *25:10 *2700:A 41.4008 
*END

*D_NET *26 0.000818778
*CONN
*I *2667:D I *D sg13cmos5l_dfrbpq_1
*I *2653:X O *D sg13cmos5l_and2_1
*CAP
1 *2667:D 0
2 *2653:X 0.000409389
3 *26:10 0.000409389
4 *26:10 *105:22 0
*RES
1 *2653:X *26:10 44.5011 
2 *26:10 *2667:D 40 
*END

*D_NET *27 0.000926763
*CONN
*I *2669:D I *D sg13cmos5l_dfrbpq_1
*I *2654:X O *D sg13cmos5l_and2_1
*CAP
1 *2669:D 0
2 *2654:X 0.000463381
3 *27:10 0.000463381
4 *27:10 *2677:D 0
5 *27:10 *52:14 0
*RES
1 *2654:X *27:10 45.2118 
2 *27:10 *2669:D 40 
*END

*D_NET *28 0.0046659
*CONN
*I *2633:A I *D sg13cmos5l_nor4_1
*I *2651:A1 I *D sg13cmos5l_a21o_1
*I *2625:Y O *D sg13cmos5l_inv_1
*CAP
1 *2633:A 0.000669615
2 *2651:A1 0
3 *2625:Y 0.000340315
4 *28:18 0.000911732
5 *28:14 0.000582432
6 *2633:A *2629:A 1.17989e-05
7 *2633:A *2633:B 6.16032e-06
8 *2633:A *2633:D 0
9 *2633:A *2647:B 0.000263561
10 *2633:A *2699:A 0
11 *2633:A *32:12 0.000469039
12 *2633:A *34:16 0.000274638
13 *2633:A *47:10 0
14 *2633:A *60:10 0.000242313
15 *2633:A *63:14 1.54556e-05
16 *28:14 *2625:A 0
17 *28:14 *2628:A 0.000287672
18 *28:14 *2648:A2 0
19 *28:14 *45:39 7.9556e-05
20 *28:14 *46:10 7.51285e-05
21 *28:18 *2649:A 0.000404093
22 *28:18 *32:12 1.54556e-05
23 *28:18 *34:18 0
24 *28:18 *44:33 1.69409e-05
25 *28:18 *63:14 0
*RES
1 *2625:Y *28:14 43.7801 
2 *28:14 *28:18 22.6986 
3 *28:18 *2651:A1 20 
4 *28:18 *2633:A 27.6426 
*END

*D_NET *29 0.00320872
*CONN
*I *2650:A1 I *D sg13cmos5l_a21oi_1
*I *2626:Y O *D sg13cmos5l_inv_1
*CAP
1 *2650:A1 0.000823856
2 *2626:Y 0.00034762
3 *29:8 0.00117148
4 *2650:A1 *2633:C 0
5 *2650:A1 *33:10 0
6 *2650:A1 *42:12 0
7 *2650:A1 *44:12 0.000340288
8 *2650:A1 *47:10 0
9 *2650:A1 *98:30 0.000446352
10 *29:8 *2647:D 0
11 *29:8 *34:61 0
12 *29:8 *59:39 0
13 *29:8 *63:20 0
14 *29:8 *98:20 7.91262e-05
15 *24:8 *2650:A1 0
*RES
1 *2626:Y *29:8 43.1312 
2 *29:8 *2650:A1 49.0743 
*END

*D_NET *30 0.00287066
*CONN
*I *2646:A1 I *D sg13cmos5l_a221oi_1
*I *2627:Y O *D sg13cmos5l_inv_1
*CAP
1 *2646:A1 0.00054384
2 *2627:Y 0.000147044
3 *30:8 0.000690885
4 *2646:A1 *2646:B1 0.000516732
5 *2646:A1 *2646:A2 0.000630539
6 *30:8 *101:8 0
7 *22:10 *30:8 0.000341621
*RES
1 *2627:Y *30:8 42.0806 
2 *30:8 *2646:A1 46.2109 
*END

*D_NET *31 0.00175515
*CONN
*I *2635:A1 I *D sg13cmos5l_a21oi_1
*I *2628:Y O *D sg13cmos5l_inv_1
*CAP
1 *2635:A1 0.000202316
2 *2628:Y 0.000267354
3 *31:12 0.00046967
4 *2635:A1 *2634:A1 0.000112426
5 *2635:A1 *2634:A2 0.000276679
6 *2635:A1 *2635:B1 0.000112426
7 *31:12 *2628:A 8.00521e-05
8 *31:12 *105:64 0.000234224
*RES
1 *2628:Y *31:12 42.6883 
2 *31:12 *2635:A1 42.5647 
*END

*D_NET *32 0.00296412
*CONN
*I *2651:B1 I *D sg13cmos5l_a21o_1
*I *2649:A I *D sg13cmos5l_or2_1
*I *2629:Y O *D sg13cmos5l_inv_1
*CAP
1 *2651:B1 0
2 *2649:A 0.000388361
3 *2629:Y 0.000431202
4 *32:12 0.000819563
5 *2649:A *34:18 0
6 *2649:A *56:8 0
7 *2649:A *105:49 0.000436407
8 *32:12 *2629:A 0
9 *32:12 *2699:A 0
10 *32:12 *105:49 0
11 *2633:A *32:12 0.000469039
12 *28:18 *2649:A 0.000404093
13 *28:18 *32:12 1.54556e-05
*RES
1 *2629:Y *32:12 24.6144 
2 *32:12 *2649:A 24.3466 
3 *32:12 *2651:B1 20 
*END

*D_NET *33 0.00231757
*CONN
*I *2633:D I *D sg13cmos5l_nor4_1
*I *2632:Y O *D sg13cmos5l_nand2_1
*CAP
1 *2633:D 0.0002757
2 *2632:Y 0.000311284
3 *33:10 0.000586983
4 *2633:D *2691:A 0
5 *2633:D *34:16 0
6 *2633:D *44:12 0.00033947
7 *2633:D *55:49 0.000145003
8 *2633:D *63:20 0
9 *33:10 *2632:B 4.74163e-05
10 *33:10 *59:39 0.000111
11 *33:10 *98:20 0.000500717
12 *2633:A *2633:D 0
13 *2650:A1 *33:10 0
*RES
1 *2632:Y *33:10 43.8213 
2 *33:10 *2633:D 42.887 
*END

*D_NET *34 0.00962812
*CONN
*I *2640:A_N I *D sg13cmos5l_nand3b_1
*I *2638:A I *D sg13cmos5l_nor2b_1
*I *2635:A2 I *D sg13cmos5l_a21oi_1
*I *2634:A2 I *D sg13cmos5l_o21ai_1
*I *2633:Y O *D sg13cmos5l_nor4_1
*CAP
1 *2640:A_N 0
2 *2638:A 0
3 *2635:A2 0
4 *2634:A2 0.00029577
5 *2633:Y 2.77263e-05
6 *34:61 0.000385191
7 *34:46 0.000648038
8 *34:18 0.000889375
9 *34:16 0.00189785
10 *34:6 0.00106913
11 *2634:A2 *2634:A1 1.54008e-05
12 *34:16 *60:10 0.000242313
13 *34:16 *63:20 0
14 *34:16 *63:52 0
15 *34:18 *2634:A1 0
16 *34:18 *2636:A 0
17 *34:18 *2636:B 0
18 *34:18 *36:8 0
19 *34:18 *63:14 0
20 *34:18 *63:52 0
21 *34:18 *105:49 0
22 *34:46 *2646:B2 0
23 *34:46 *37:10 0.00119221
24 *34:46 *63:14 0
25 *34:46 *63:52 0
26 *34:46 *85:8 0
27 *34:61 *2633:C 0.000767035
28 *34:61 *37:33 0
29 *34:61 *42:12 0.000767449
30 *34:61 *60:33 8.01612e-05
31 *34:61 *60:52 3.24568e-05
32 *34:61 *63:20 0
33 *2633:A *34:16 0.000274638
34 *2633:D *34:16 0
35 *2635:A1 *2634:A2 0.000276679
36 *2649:A *34:18 0
37 *2703:A *34:18 0
38 *3:65 *34:46 0
39 *20:10 *34:18 0
40 *21:10 *34:46 0.000766707
41 *28:18 *34:18 0
42 *29:8 *34:61 0
*RES
1 *2633:Y *34:6 20.3502 
2 *34:6 *34:16 7.0967 
3 *34:16 *34:18 5.5017 
4 *34:18 *2634:A2 23.296 
5 *34:18 *2635:A2 20 
6 *34:16 *34:46 49.5687 
7 *34:46 *2638:A 20 
8 *34:6 *34:61 46.18 
9 *34:61 *2640:A_N 20 
*END

*D_NET *35 0.00120916
*CONN
*I *2635:B1 I *D sg13cmos5l_a21oi_1
*I *2634:Y O *D sg13cmos5l_o21ai_1
*CAP
1 *2635:B1 0.000122311
2 *2634:Y 0.000229634
3 *35:12 0.000351945
4 *35:12 *2634:B1 0
5 *35:12 *105:49 4.72956e-05
6 *35:12 *105:64 0.000234224
7 *2635:A1 *2635:B1 0.000112426
8 *20:10 *2635:B1 0.000111324
*RES
1 *2634:Y *35:12 42.1939 
2 *35:12 *2635:B1 41.1845 
*END

*D_NET *36 0.00353817
*CONN
*I *2645:A2 I *D sg13cmos5l_o21ai_1
*I *2637:B I *D sg13cmos5l_nand2b_1
*I *2648:A2 I *D sg13cmos5l_o21ai_1
*I *2636:Y O *D sg13cmos5l_xnor2_1
*CAP
1 *2645:A2 0.00036189
2 *2637:B 0.000118368
3 *2648:A2 0.000441274
4 *2636:Y 6.65027e-05
5 *36:23 0.000682285
6 *36:8 0.000709803
7 *2637:B *2655:CLK 0.000177137
8 *2637:B *63:52 1.54556e-05
9 *2637:B *63:56 0
10 *2645:A2 *2645:B1 0.000144298
11 *2645:A2 *2646:C1 0
12 *2645:A2 *2655:CLK 0.000176861
13 *2645:A2 *97:10 0
14 *2648:A2 *2628:A 0
15 *2648:A2 *2636:B 0
16 *2648:A2 *2648:B1 0.000112568
17 *2648:A2 *2648:A1 4.7885e-05
18 *2648:A2 *45:14 0.000287256
19 *2648:A2 *46:10 0.000181192
20 *36:8 *2636:A 0
21 *36:8 *2636:B 1.54008e-05
22 *36:23 *2648:A1 0
23 *36:23 *63:80 0
24 *28:14 *2648:A2 0
25 *34:18 *36:8 0
*RES
1 *2636:Y *36:8 40.5356 
2 *36:8 *2648:A2 44.8513 
3 *36:8 *36:23 2.0806 
4 *36:23 *2637:B 41.1845 
5 *36:23 *2645:A2 43.5123 
*END

*D_NET *37 0.00719281
*CONN
*I *2644:C I *D sg13cmos5l_nand3_1
*I *2640:B I *D sg13cmos5l_nand3b_1
*I *2638:B_N I *D sg13cmos5l_nor2b_1
*I *2637:Y O *D sg13cmos5l_nand2b_1
*CAP
1 *2644:C 0
2 *2640:B 0
3 *2638:B_N 0
4 *2637:Y 0.000570859
5 *37:33 0.000462903
6 *37:25 0.00121224
7 *37:12 0.000749342
8 *37:10 0.000570859
9 *37:10 *2655:CLK 0.000209593
10 *37:10 *85:8 0
11 *37:25 *2641:A1 0
12 *37:25 *2708:A 0
13 *37:25 *2709:A 0
14 *37:25 *59:54 1.54008e-05
15 *37:25 *102:24 0
16 *37:33 *2627:A 0.000393736
17 *37:33 *2633:C 0.00028743
18 *37:33 *39:12 0.000209615
19 *37:33 *60:33 0
20 *37:33 *60:52 0.00131862
21 *37:33 *82:8 0
22 *2707:A *37:25 0
23 *3:49 *37:10 0
24 *3:49 *37:25 0
25 *22:10 *37:25 0
26 *23:10 *37:10 0
27 *34:46 *37:10 0.00119221
28 *34:61 *37:33 0
*RES
1 *2637:Y *37:10 46.9422 
2 *37:10 *37:12 20 
3 *37:12 *2638:B_N 20 
4 *37:12 *37:25 7.21 
5 *37:25 *37:33 47.1276 
6 *37:33 *2640:B 20 
7 *37:25 *2644:C 20 
*END

*D_NET *38 0.00192229
*CONN
*I *2639:B I *D sg13cmos5l_and2_1
*I *2646:B2 I *D sg13cmos5l_a221oi_1
*I *2638:Y O *D sg13cmos5l_nor2b_1
*CAP
1 *2639:B 0.000291193
2 *2646:B2 0.000427127
3 *2638:Y 0.000137985
4 *38:8 0.000856304
5 *2639:B *2641:A2 0
6 *2639:B *63:80 0
7 *2639:B *85:8 0
8 *2639:B *105:79 0.000209681
9 *2646:B2 *63:80 0
10 *3:49 *2639:B 0
11 *3:65 *2639:B 0
12 *3:65 *38:8 0
13 *21:10 *2639:B 0
14 *21:10 *2646:B2 0
15 *34:46 *2646:B2 0
*RES
1 *2638:Y *38:8 41.4008 
2 *38:8 *2646:B2 45.047 
3 *38:8 *2639:B 43.1724 
*END

*D_NET *39 0.00505241
*CONN
*I *2642:B_N I *D sg13cmos5l_nor2b_1
*I *2646:A2 I *D sg13cmos5l_a221oi_1
*I *2640:Y O *D sg13cmos5l_nand3b_1
*CAP
1 *2642:B_N 0.000462584
2 *2646:A2 0.000761714
3 *2640:Y 0.000343753
4 *39:12 0.00156805
5 *2642:B_N *42:12 0.000661264
6 *2642:B_N *102:24 0
7 *2646:A2 *2646:B1 0
8 *39:12 *2646:B1 0
9 *39:12 *2659:RESET_B 0
10 *39:12 *2661:RESET_B 7.98779e-05
11 *39:12 *42:12 0.000287256
12 *39:12 *60:33 0
13 *2646:A1 *2646:A2 0.000630539
14 *2657:D *2646:A2 4.77534e-05
15 *22:10 *2642:B_N 0
16 *37:33 *39:12 0.000209615
*RES
1 *2640:Y *39:12 43.9552 
2 *39:12 *2646:A2 47.4701 
3 *39:12 *2642:B_N 45.2736 
*END

*D_NET *40 0.000443561
*CONN
*I *2709:A I *D sg13cmos5l_dlygate4sd3_1
*I *2641:Y O *D sg13cmos5l_o21ai_1
*CAP
1 *2709:A 0.000221781
2 *2641:Y 0.000221781
3 *2709:A *2641:A1 0
4 *2709:A *2727:A 0
5 rst *2709:A 0
6 *37:25 *2709:A 0
*RES
1 *2641:Y *2709:A 42.4926 
*END

*D_NET *41 0.00332501
*CONN
*I *2646:B1 I *D sg13cmos5l_a221oi_1
*I *2643:X O *D sg13cmos5l_and2_1
*CAP
1 *2646:B1 0.000904175
2 *2643:X 0.000904175
3 *2646:B1 *2643:A 0
4 *2646:B1 *2646:C1 0
5 *2646:B1 *2655:CLK 0
6 *2646:B1 *2657:RESET_B 8.0194e-05
7 *2646:B1 *2659:RESET_B 0.000403136
8 *2646:B1 *2661:RESET_B 0.000209856
9 *2646:B1 *53:10 0
10 *2646:A1 *2646:B1 0.000516732
11 *2646:A2 *2646:B1 0
12 *23:10 *2646:B1 0.000306739
13 *39:12 *2646:B1 0
*RES
1 *2643:X *2646:B1 49.888 
*END

*D_NET *42 0.00621046
*CONN
*I *2650:A2 I *D sg13cmos5l_a21oi_1
*I *2644:Y O *D sg13cmos5l_nand3_1
*CAP
1 *2650:A2 0
2 *2644:Y 0
3 *42:12 0.0012685
4 *42:6 0.0012685
5 *42:12 *2633:C 0
6 *42:12 *2665:RESET_B 0
7 *42:12 *50:54 0
8 *42:12 *60:33 0
9 *42:12 *82:8 0.000872684
10 *42:12 *93:10 0
11 *42:12 *98:30 0
12 *42:12 *105:37 0
13 *42:12 *108:6 0
14 *2642:B_N *42:12 0.000661264
15 *2650:A1 *42:12 0
16 *24:8 *42:12 0.00108481
17 *34:61 *42:12 0.000767449
18 *39:12 *42:12 0.000287256
*RES
1 *2644:Y *42:6 40 
2 *42:6 *42:12 36.9229 
3 *42:12 *2650:A2 20 
*END

*D_NET *43 0.000877586
*CONN
*I *2646:C1 I *D sg13cmos5l_a221oi_1
*I *2645:Y O *D sg13cmos5l_o21ai_1
*CAP
1 *2646:C1 0.000398986
2 *2645:Y 0.000398986
3 *2646:C1 *2645:B1 7.96143e-05
4 *2646:C1 *2655:RESET_B 0
5 *2646:C1 *2655:CLK 0
6 *2645:A2 *2646:C1 0
7 *2646:B1 *2646:C1 0
*RES
1 *2645:Y *2646:C1 43.914 
*END

*D_NET *44 0.0050724
*CONN
*I *2651:A2 I *D sg13cmos5l_a21o_1
*I *2648:B1 I *D sg13cmos5l_o21ai_1
*I *2647:Y O *D sg13cmos5l_nand4_1
*CAP
1 *2651:A2 0
2 *2648:B1 0.000432963
3 *2647:Y 0.000430792
4 *44:33 0.000156522
5 *44:16 0.00125663
6 *44:12 0.00109794
7 *2648:B1 *2628:A 0
8 *2648:B1 *2702:A 0
9 *2648:B1 *45:8 0
10 *2648:B1 *45:39 0
11 *2648:B1 *105:49 0
12 *44:12 *2647:B 0
13 *44:12 *55:49 0
14 *44:16 *2690:A 0
15 *44:16 *45:39 0
16 *44:16 *47:10 0.000888284
17 *44:16 *50:36 0
18 *44:16 *59:16 0
19 *44:16 *105:49 0
20 *44:33 *2628:A 0
21 *2633:D *44:12 0.00033947
22 *2648:A2 *2648:B1 0.000112568
23 *2650:A1 *44:12 0.000340288
24 *3:49 *44:33 0
25 *28:18 *44:33 1.69409e-05
*RES
1 *2647:Y *44:12 44.8513 
2 *44:12 *44:16 27.0246 
3 *44:16 *2648:B1 24.4084 
4 *44:16 *44:33 41.6995 
5 *44:33 *2651:A2 20 
*END

*D_NET *45 0.00518525
*CONN
*I *2652:A2 I *D sg13cmos5l_a21oi_1
*I *2649:B I *D sg13cmos5l_or2_1
*I *2648:Y O *D sg13cmos5l_o21ai_1
*CAP
1 *2652:A2 1.14893e-05
2 *2649:B 0
3 *2648:Y 8.61431e-05
4 *45:39 0.00126837
5 *45:14 0.000138963
6 *45:8 0.00148199
7 *2652:A2 *2652:B1 0
8 *2652:A2 *50:34 0
9 *45:8 *2625:A 0
10 *45:14 *2648:A1 0.000234224
11 *45:39 *2625:A 0.000760942
12 *45:39 *2652:A1 0.000434988
13 *45:39 *2665:CLK 0
14 *45:39 *2690:A 0
15 *45:39 *47:10 0.00012816
16 *45:39 *50:34 0
17 *45:39 *50:36 0
18 *2648:B1 *45:8 0
19 *2648:B1 *45:39 0
20 *2648:A2 *45:14 0.000287256
21 *2700:A *45:39 0.000175937
22 *3:43 *2652:A2 0
23 *25:10 *45:39 9.72251e-05
24 *28:14 *45:39 7.9556e-05
25 *44:16 *45:39 0
*RES
1 *2648:Y *45:8 20.8858 
2 *45:8 *45:14 42.0806 
3 *45:14 *2649:B 20 
4 *45:8 *45:39 34.1522 
5 *45:39 *2652:A2 40.1082 
*END

*D_NET *46 0.00360605
*CONN
*I *2650:B1 I *D sg13cmos5l_a21oi_1
*I *2649:X O *D sg13cmos5l_or2_1
*CAP
1 *2650:B1 0.00094059
2 *2649:X 0.000444367
3 *46:10 0.00138496
4 *2650:B1 *2625:A 0
5 *2650:B1 *2665:RESET_B 0
6 *2650:B1 *2669:RESET_B 0
7 *2650:B1 *2669:CLK 0
8 *2650:B1 *2695:A 0.00024222
9 *2650:B1 *52:8 0
10 *2650:B1 *93:10 0.00024211
11 *46:10 *2628:A 4.77425e-05
12 *46:10 *105:49 4.77425e-05
13 *2648:A2 *46:10 0.000181192
14 *3:43 *2650:B1 0
15 *28:14 *46:10 7.51285e-05
*RES
1 *2649:X *46:10 45.1191 
2 *46:10 *2650:B1 49.991 
*END

*D_NET *47 0.00371599
*CONN
*I *2652:B1 I *D sg13cmos5l_a21oi_1
*I *2651:X O *D sg13cmos5l_a21o_1
*CAP
1 *2652:B1 0.000103318
2 *2651:X 0.000916149
3 *47:10 0.00101947
4 *2652:B1 *2652:A1 0.000111481
5 *2652:B1 *50:34 0
6 *47:10 *2629:A 0
7 *47:10 *2647:B 0
8 *47:10 *59:16 0
9 *47:10 *105:49 0.000468912
10 *2633:A *47:10 0
11 *2650:A1 *47:10 0
12 *2652:A2 *2652:B1 0
13 *2705:A *47:10 8.0216e-05
14 *3:43 *2652:B1 0
15 *44:16 *47:10 0.000888284
16 *45:39 *47:10 0.00012816
*RES
1 *2651:X *47:10 49.6923 
2 *47:10 *2652:B1 40.9682 
*END

*D_NET *48 0.000335253
*CONN
*I *2688:A I *D sg13cmos5l_buf_8
*I *2694:X O *D sg13cmos5l_buf_8
*CAP
1 *2688:A 0.000167627
2 *2694:X 0.000167627
3 *2688:A *50:27 0
4 *2688:A *50:34 0
5 *2688:A *75:12 0
6 *3:26 *2688:A 0
*RES
1 *2694:X *2688:A 41.7201 
*END

*D_NET *49 0.00198442
*CONN
*I *2689:A I *D sg13cmos5l_buf_8
*I *2687:X O *D sg13cmos5l_buf_8
*CAP
1 *2689:A 0.000150927
2 *2687:X 9.50129e-05
3 *49:19 0.000897195
4 *49:6 0.000841281
5 *49:6 *69:10 0
6 *49:6 *106:10 0
7 *49:19 *51:10 0
8 *49:19 *69:10 0
9 *49:19 *106:10 0
*RES
1 *2687:X *49:6 20.9682 
2 *49:6 *49:19 46.798 
3 *49:19 *2689:A 21.1845 
*END

*D_NET *50 0.00846933
*CONN
*I *2693:A I *D sg13cmos5l_buf_8
*I *2691:A I *D sg13cmos5l_buf_8
*I *2690:A I *D sg13cmos5l_buf_8
*I *2692:A I *D sg13cmos5l_buf_8
*I *2688:X O *D sg13cmos5l_buf_8
*CAP
1 *2693:A 6.08308e-05
2 *2691:A 0.000110874
3 *2690:A 0.000133148
4 *2692:A 8.96687e-05
5 *2688:X 0.000127337
6 *50:70 0.000404653
7 *50:65 0.000343822
8 *50:54 0.000674791
9 *50:36 0.000316692
10 *50:34 0.00212186
11 *50:27 0.001472
12 *50:25 9.76035e-05
13 *50:11 0.00123919
14 *50:6 0.00127686
15 *2691:A *63:20 0
16 *50:11 *2681:RESET_B 0
17 *50:11 *2681:D 0
18 *50:34 *2647:B 0
19 *50:34 *2652:A1 0
20 *50:34 *2663:D 0
21 *50:34 *59:16 0
22 *50:34 *98:30 0
23 *50:36 *59:16 0
24 *50:54 *59:8 0
25 *50:54 *60:33 0
26 *50:54 *105:37 0
27 *2633:D *2691:A 0
28 *2652:A2 *50:34 0
29 *2652:B1 *50:34 0
30 *2688:A *50:27 0
31 *2688:A *50:34 0
32 *2700:A *50:34 0
33 *3:26 *2692:A 0
34 *3:26 *50:6 0
35 *3:26 *50:11 0
36 *3:26 *50:27 0
37 *3:30 *50:27 0
38 *3:30 *50:34 0
39 *3:32 *50:34 0
40 *3:43 *50:34 0
41 *42:12 *50:54 0
42 *44:16 *2690:A 0
43 *44:16 *50:36 0
44 *45:39 *2690:A 0
45 *45:39 *50:34 0
46 *45:39 *50:36 0
*RES
1 *2688:X *50:6 21.1845 
2 *50:6 *50:11 10.981 
3 *50:11 *2692:A 20.9682 
4 *2688:X *50:25 20 
5 *50:25 *50:27 0.9682 
6 *50:27 *50:34 13.8947 
7 *50:34 *50:36 1.8334 
8 *50:36 *2690:A 21.1845 
9 *50:34 *50:54 44.3775 
10 *50:54 *2691:A 20.9682 
11 *50:25 *50:65 20 
12 *50:65 *50:70 3.3166 
13 *50:70 *2693:A 40.5356 
*END

*D_NET *51 0.00302946
*CONN
*I *2726:A I *D sg13cmos5l_buf_1
*I *2689:X O *D sg13cmos5l_buf_8
*CAP
1 *2726:A 0.000107122
2 *2689:X 0.000882025
3 *51:10 0.000989147
4 *51:10 *2655:RESET_B 0.000177236
5 *51:10 *105:79 0.000873929
6 *49:19 *51:10 0
*RES
1 *2689:X *51:10 49.1361 
2 *51:10 *2726:A 40.9682 
*END

*D_NET *52 0.00341627
*CONN
*I *2665:CLK I *D sg13cmos5l_dfrbpq_1
*I *2669:CLK I *D sg13cmos5l_dfrbpq_1
*I *2677:CLK I *D sg13cmos5l_dfrbpq_1
*I *2675:CLK I *D sg13cmos5l_dfrbpq_1
*I *2690:X O *D sg13cmos5l_buf_8
*CAP
1 *2665:CLK 0.00020141
2 *2669:CLK 0.000194897
3 *2677:CLK 0
4 *2675:CLK 0
5 *2690:X 0.000366951
6 *52:14 0.000408035
7 *52:8 0.000768473
8 *2665:CLK *2625:A 1.54008e-05
9 *2665:CLK *2652:A1 0
10 *2669:CLK *2625:A 0
11 *52:8 *2625:A 0
12 *52:14 *65:8 0.0014611
13 *2650:B1 *2669:CLK 0
14 *2650:B1 *52:8 0
15 *27:10 *52:14 0
16 *45:39 *2665:CLK 0
*RES
1 *2690:X *52:8 21.9673 
2 *52:8 *52:14 46.7774 
3 *52:14 *2675:CLK 20 
4 *52:8 *2677:CLK 20 
5 *52:8 *2669:CLK 22.1836 
6 *2690:X *2665:CLK 41.751 
*END

*D_NET *53 0.00265725
*CONN
*I *2659:CLK I *D sg13cmos5l_dfrbpq_1
*I *2661:CLK I *D sg13cmos5l_dfrbpq_1
*I *2655:CLK I *D sg13cmos5l_dfrbpq_1
*I *2657:CLK I *D sg13cmos5l_dfrbpq_1
*I *2691:X O *D sg13cmos5l_buf_8
*CAP
1 *2659:CLK 0
2 *2661:CLK 0
3 *2655:CLK 0.000444122
4 *2657:CLK 0
5 *2691:X 0.000201339
6 *53:10 0.000647046
7 *53:8 0.00036126
8 *53:6 0.000359675
9 *2655:CLK *63:52 0
10 *2655:CLK *63:56 0
11 *53:6 *2661:RESET_B 0
12 *53:6 *60:33 0
13 *53:6 *63:20 0
14 *53:8 *2661:RESET_B 0
15 *53:8 *63:20 0
16 *53:10 *2661:RESET_B 0
17 *53:10 *63:20 0
18 *53:10 *63:52 8.0216e-05
19 *2637:B *2655:CLK 0.000177137
20 *2645:A2 *2655:CLK 0.000176861
21 *2646:C1 *2655:CLK 0
22 *2646:B1 *2655:CLK 0
23 *2646:B1 *53:10 0
24 *23:10 *53:10 0
25 *37:10 *2655:CLK 0.000209593
*RES
1 *2691:X *53:6 22.0497 
2 *53:6 *53:8 1.8334 
3 *53:8 *53:10 2.266 
4 *53:10 *2657:CLK 20 
5 *53:10 *2655:CLK 24.6968 
6 *53:8 *2661:CLK 20 
7 *53:6 *2659:CLK 20 
*END

*D_NET *54 0.0065053
*CONN
*I *2671:CLK I *D sg13cmos5l_dfrbpq_1
*I *2673:CLK I *D sg13cmos5l_dfrbpq_1
*I *2679:CLK I *D sg13cmos5l_dfrbpq_1
*I *2667:CLK I *D sg13cmos5l_dfrbpq_1
*I *2692:X O *D sg13cmos5l_buf_8
*CAP
1 *2671:CLK 0.000493562
2 *2673:CLK 0
3 *2679:CLK 0
4 *2667:CLK 0.000486965
5 *2692:X 0
6 *54:38 0.000669283
7 *54:30 0.00143301
8 *54:10 0.00118656
9 *54:4 0.000969755
10 *2667:CLK *86:12 0.00071625
11 *2667:CLK *96:14 0
12 *2671:CLK *2671:RESET_B 0
13 *54:10 *77:10 0
14 *54:10 *86:12 0.000534469
15 *54:38 *2673:RESET_B 1.54556e-05
16 *54:38 *66:8 0
17 *3:26 *54:10 0
18 *3:26 *54:30 0
19 *3:26 *54:38 0
*RES
1 *2692:X *54:4 20 
2 *54:4 *54:10 28.7344 
3 *54:10 *2667:CLK 46.8186 
4 *54:10 *2679:CLK 40 
5 *54:4 *54:30 2.9149 
6 *54:30 *54:38 47.7147 
7 *54:38 *2673:CLK 20 
8 *54:30 *2671:CLK 25.4281 
*END

*D_NET *55 0.00574714
*CONN
*I *2685:CLK I *D sg13cmos5l_dfrbpq_1
*I *2663:CLK I *D sg13cmos5l_dfrbpq_1
*I *2683:CLK I *D sg13cmos5l_dfrbpq_1
*I *2681:CLK I *D sg13cmos5l_dfrbpq_1
*I *2693:X O *D sg13cmos5l_buf_8
*CAP
1 *2685:CLK 0
2 *2663:CLK 0
3 *2683:CLK 0
4 *2681:CLK 0.000419609
5 *2693:X 0.00119549
6 *55:49 0.000712785
7 *55:35 0.000906519
8 *55:26 0.000851612
9 *55:8 0.00095722
10 *2681:CLK *77:10 0
11 *2681:CLK *86:12 0
12 *55:26 *2683:RESET_B 0
13 *55:26 *2685:RESET_B 0
14 *55:35 *2685:RESET_B 0
15 *55:49 *2632:A 4.77425e-05
16 *55:49 *2632:B 4.77425e-05
17 *55:49 *2647:B 0
18 *55:49 *2647:D 0
19 *55:49 *59:33 0.000448012
20 *55:49 *59:39 1.54008e-05
21 *55:49 *63:20 0
22 *55:49 *98:20 0
23 *2633:D *55:49 0.000145003
24 *44:12 *55:49 0
*RES
1 *2693:X *55:8 45.7268 
2 *55:8 *2681:CLK 45.047 
3 *2693:X *55:26 26.5714 
4 *55:26 *2683:CLK 20 
5 *55:26 *55:35 2.6162 
6 *55:35 *55:49 47.3748 
7 *55:49 *2663:CLK 20 
8 *55:35 *2685:CLK 20 
*END

*D_NET *56 0.0062519
*CONN
*I *2631:A I *D sg13cmos5l_nor2_1
*I *2630:B_N I *D sg13cmos5l_nor2b_1
*I *2636:A I *D sg13cmos5l_xnor2_1
*I *2634:A1 I *D sg13cmos5l_o21ai_1
*I *2655:Q O *D sg13cmos5l_dfrbpq_1
*CAP
1 *2631:A 8.21675e-05
2 *2630:B_N 0
3 *2636:A 0.000222344
4 *2634:A1 0.000309204
5 *2655:Q 3.68271e-05
6 *56:34 0.000608961
7 *56:23 0.000872313
8 *56:8 0.000469207
9 *2631:A *2631:B 0.000106566
10 *2631:A *63:80 0.000181279
11 *2634:A1 *2648:A1 0
12 *2634:A1 *105:49 0
13 *2636:A *2636:B 0.0001127
14 *2636:A *63:56 0
15 *56:23 *2648:A1 0.000341119
16 *56:23 *105:64 0
17 *56:34 *2648:A1 0.000235055
18 *56:34 *63:80 0.0017567
19 *56:34 *97:10 0.000767537
20 *56:34 *105:64 0
21 *56:34 *105:79 0
22 *2634:A2 *2634:A1 1.54008e-05
23 *2635:A1 *2634:A1 0.000112426
24 *2649:A *56:8 0
25 *20:10 *2634:A1 2.20966e-05
26 *34:18 *2634:A1 0
27 *34:18 *2636:A 0
28 *36:8 *2636:A 0
*RES
1 *2655:Q *56:8 40.3193 
2 *56:8 *2634:A1 42.781 
3 *56:8 *56:23 1.5862 
4 *56:23 *2636:A 41.6148 
5 *56:23 *56:34 9.2494 
6 *56:34 *2630:B_N 40 
7 *56:34 *2631:A 41.339 
*END

*D_NET *57 0.00287136
*CONN
*I *2701:A I *D sg13cmos5l_dlygate4sd3_1
*I *2667:Q O *D sg13cmos5l_dfrbpq_1
*CAP
1 *2701:A 0.000591156
2 *2667:Q 0.000707127
3 *57:16 0.00129828
4 *2701:A *108:6 0
5 *57:16 *2679:RESET_B 0.000274798
6 *57:16 *108:6 0
*RES
1 *2667:Q *57:16 48.3327 
2 *57:16 *2701:A 46.1594 
*END

*D_NET *58 0.000196587
*CONN
*I *2702:A I *D sg13cmos5l_dlygate4sd3_1
*I *2669:Q O *D sg13cmos5l_dfrbpq_1
*CAP
1 *2702:A 7.43374e-05
2 *2669:Q 7.43374e-05
3 *2702:A *105:49 4.79124e-05
4 *2648:B1 *2702:A 0
*RES
1 *2669:Q *2702:A 40.9167 
*END

*D_NET *59 0.00840736
*CONN
*I *2632:A I *D sg13cmos5l_nand2_1
*I *2644:B I *D sg13cmos5l_nand3_1
*I *2708:A I *D sg13cmos5l_dlygate4sd3_1
*I *2643:B I *D sg13cmos5l_and2_1
*I *2647:C I *D sg13cmos5l_nand4_1
*I *2659:Q O *D sg13cmos5l_dfrbpq_1
*CAP
1 *2632:A 2.68585e-05
2 *2644:B 0
3 *2708:A 0.000316466
4 *2643:B 3.58446e-05
5 *2647:C 0
6 *2659:Q 0.000267848
7 *59:54 0.000767478
8 *59:39 0.00100652
9 *59:33 0.000770208
10 *59:16 0.000963763
11 *59:8 0.00100793
12 *2708:A *60:52 4.77425e-05
13 *59:8 *2647:B 0.000287672
14 *59:8 *60:33 2.20966e-05
15 *59:8 *105:37 0
16 *59:16 *2647:B 0
17 *59:16 *2663:RESET_B 0
18 *59:16 *98:20 0.000102147
19 *59:16 *98:30 0.000932924
20 *59:16 *107:8 0
21 *59:33 *98:8 7.51285e-05
22 *59:33 *98:20 0
23 *59:39 *2632:B 0
24 *59:39 *2633:C 0
25 *59:39 *61:8 0
26 *59:39 *98:20 0
27 *59:39 *102:24 0.000395067
28 *59:54 *84:10 0
29 *59:54 *102:24 0.000744108
30 *29:8 *59:39 0
31 *33:10 *59:39 0.000111
32 *37:25 *2708:A 0
33 *37:25 *59:54 1.54008e-05
34 *44:16 *59:16 0
35 *47:10 *59:16 0
36 *50:34 *59:16 0
37 *50:36 *59:16 0
38 *50:54 *59:8 0
39 *55:49 *2632:A 4.77425e-05
40 *55:49 *59:33 0.000448012
41 *55:49 *59:39 1.54008e-05
*RES
1 *2659:Q *59:8 42.575 
2 *59:8 *59:16 47.8383 
3 *59:16 *2647:C 40 
4 *59:16 *59:33 23.3475 
5 *59:33 *59:39 25.3972 
6 *59:39 *2643:B 40.3193 
7 *59:39 *59:54 25.6135 
8 *59:54 *2708:A 22.9664 
9 *59:54 *2644:B 20 
10 *59:33 *2632:A 20.3193 
*END

*D_NET *60 0.00770725
*CONN
*I *2644:A I *D sg13cmos5l_nand3_1
*I *2706:A I *D sg13cmos5l_dlygate4sd3_1
*I *2647:B I *D sg13cmos5l_nand4_1
*I *2661:Q O *D sg13cmos5l_dfrbpq_1
*CAP
1 *2644:A 0
2 *2706:A 0
3 *2647:B 0.000853117
4 *2661:Q 0.000154237
5 *60:52 0.000481242
6 *60:33 0.00101067
7 *60:10 0.00153678
8 *2647:B *2629:A 0
9 *2647:B *2647:D 0
10 *2647:B *2663:RESET_B 0
11 *60:33 *2661:RESET_B 0
12 *60:52 *2633:C 0
13 *60:52 *82:8 0.000234311
14 *60:52 *84:10 0.000819739
15 *60:52 *102:24 0
16 *2633:A *2647:B 0.000263561
17 *2633:A *60:10 0.000242313
18 *2705:A *2647:B 8.0216e-05
19 *2708:A *60:52 4.77425e-05
20 *3:49 *60:33 0
21 *34:16 *60:10 0.000242313
22 *34:61 *60:33 8.01612e-05
23 *34:61 *60:52 3.24568e-05
24 *37:33 *60:33 0
25 *37:33 *60:52 0.00131862
26 *39:12 *60:33 0
27 *42:12 *60:33 0
28 *44:12 *2647:B 0
29 *47:10 *2647:B 0
30 *50:34 *2647:B 0
31 *50:54 *60:33 0
32 *53:6 *60:33 0
33 *55:49 *2647:B 0
34 *59:8 *2647:B 0.000287672
35 *59:8 *60:33 2.20966e-05
36 *59:16 *2647:B 0
*RES
1 *2661:Q *60:10 41.9364 
2 *60:10 *2647:B 49.0331 
3 *60:10 *60:33 25.8916 
4 *60:33 *2706:A 20 
5 *60:33 *60:52 48.3018 
6 *60:52 *2644:A 20 
*END

*D_NET *61 0.000817949
*CONN
*I *2704:A I *D sg13cmos5l_dlygate4sd3_1
*I *2663:Q O *D sg13cmos5l_dfrbpq_1
*CAP
1 *2704:A 0.000168481
2 *2663:Q 0.000240493
3 *61:8 0.000408974
4 *2704:A *2632:B 0
5 *61:8 *2632:B 0
6 *61:8 *98:8 0
7 *59:39 *61:8 0
*RES
1 *2663:Q *61:8 42.3278 
2 *61:8 *2704:A 41.6171 
*END

*D_NET *62 0.000447698
*CONN
*I *2699:A I *D sg13cmos5l_dlygate4sd3_1
*I *2665:Q O *D sg13cmos5l_dfrbpq_1
*CAP
1 *2699:A 0.000223849
2 *2665:Q 0.000223849
3 *2699:A *105:49 0
4 *2633:A *2699:A 0
5 *32:12 *2699:A 0
*RES
1 *2665:Q *2699:A 42.1012 
*END

*D_NET *63 0.0132938
*CONN
*I *2637:A_N I *D sg13cmos5l_nand2b_1
*I *2631:B I *D sg13cmos5l_nor2_1
*I *2630:A I *D sg13cmos5l_nor2b_1
*I *2641:A2 I *D sg13cmos5l_o21ai_1
*I *2648:A1 I *D sg13cmos5l_o21ai_1
*I *2645:A1 I *D sg13cmos5l_o21ai_1
*I *2632:B I *D sg13cmos5l_nand2_1
*I *2647:D I *D sg13cmos5l_nand4_1
*I *2657:Q O *D sg13cmos5l_dfrbpq_1
*CAP
1 *2637:A_N 0
2 *2631:B 0.00010191
3 *2630:A 3.28991e-05
4 *2641:A2 0.000650459
5 *2648:A1 0.00044274
6 *2645:A1 0.000299177
7 *2632:B 0.000292068
8 *2647:D 0.000271627
9 *2657:Q 0.000239012
10 *63:82 0.000683358
11 *63:80 0.00066854
12 *63:67 0.00100937
13 *63:56 0.000536185
14 *63:52 0.000611168
15 *63:20 0.00147632
16 *63:14 0.0015258
17 *2632:B *98:20 0.000159096
18 *2641:A2 *2641:B1 3.24568e-05
19 *2641:A2 *2641:A1 1.54556e-05
20 *2641:A2 *68:10 0
21 *2641:A2 *105:79 0.000501463
22 *2641:A2 *105:87 8.03692e-05
23 *2645:A1 *97:10 0.000176614
24 *2647:D *98:20 0.000183242
25 *2648:A1 *2628:A 4.77534e-05
26 *63:14 *2628:A 0
27 *63:14 *2636:B 0
28 *2631:A *2631:B 0.000106566
29 *2631:A *63:80 0.000181279
30 *2633:A *63:14 1.54556e-05
31 *2633:D *63:20 0
32 *2634:A1 *2648:A1 0
33 *2636:A *63:56 0
34 *2637:B *63:52 1.54556e-05
35 *2637:B *63:56 0
36 *2639:B *2641:A2 0
37 *2639:B *63:80 0
38 *2646:B2 *63:80 0
39 *2647:B *2647:D 0
40 *2648:A2 *2648:A1 4.7885e-05
41 *2655:CLK *63:52 0
42 *2655:CLK *63:56 0
43 *2691:A *63:20 0
44 *2703:A *2645:A1 0
45 *2704:A *2632:B 0
46 *2707:A *2641:A2 0.000147614
47 *3:49 *2641:A2 0
48 *3:49 *63:14 0
49 *3:49 *63:52 0
50 *28:18 *63:14 0
51 *29:8 *2647:D 0
52 *29:8 *63:20 0
53 *33:10 *2632:B 4.74163e-05
54 *34:16 *63:20 0
55 *34:16 *63:52 0
56 *34:18 *63:14 0
57 *34:18 *63:52 0
58 *34:46 *63:14 0
59 *34:46 *63:52 0
60 *34:61 *63:20 0
61 *36:23 *2648:A1 0
62 *36:23 *63:80 0
63 *45:14 *2648:A1 0.000234224
64 *53:6 *63:20 0
65 *53:8 *63:20 0
66 *53:10 *63:20 0
67 *53:10 *63:52 8.0216e-05
68 *55:49 *2632:B 4.77425e-05
69 *55:49 *2647:D 0
70 *55:49 *63:20 0
71 *56:23 *2648:A1 0.000341119
72 *56:34 *2648:A1 0.000235055
73 *56:34 *63:80 0.0017567
74 *59:39 *2632:B 0
75 *61:8 *2632:B 0
*RES
1 *2657:Q *63:14 42.5132 
2 *63:14 *63:20 47.831 
3 *63:20 *2647:D 42.8578 
4 *63:20 *2632:B 42.8016 
5 *63:14 *63:52 23.8522 
6 *63:52 *63:56 2.3999 
7 *63:56 *2645:A1 22.8943 
8 *63:56 *63:67 20 
9 *63:67 *2648:A1 45.1191 
10 *63:67 *63:80 9.0022 
11 *63:80 *63:82 20 
12 *63:82 *2641:A2 27.864 
13 *63:82 *2630:A 20.3193 
14 *63:80 *2631:B 41.4111 
15 *63:52 *2637:A_N 20 
*END

*D_NET *64 0.0087719
*CONN
*I *2653:B I *D sg13cmos5l_and2_1
*I *2710:X O *D sg13cmos5l_buf_1
*CAP
1 *2653:B 0.000170457
2 *2710:X 0
3 *64:8 0.00438595
4 *64:6 0.00421549
5 *64:8 *105:16 0
*RES
1 *2710:X *64:6 40 
2 *64:6 *64:8 54.487 
3 *64:8 *2653:B 41.8334 
*END

*D_NET *65 0.0126672
*CONN
*I *2718:A I *D sg13cmos5l_buf_1
*I *2677:Q O *D sg13cmos5l_dfrbpq_1
*CAP
1 *2718:A 0
2 *2677:Q 0
3 *65:8 0.00560306
4 *65:6 0.00560306
5 *65:8 *105:26 0
6 *65:8 *111:8 0
7 *3:49 *65:8 0
8 *52:14 *65:8 0.0014611
*RES
1 *2677:Q *65:6 40 
2 *65:6 *65:8 72.7798 
3 *65:8 *2718:A 40 
*END

*D_NET *66 0.0161846
*CONN
*I *2719:A I *D sg13cmos5l_buf_1
*I *2673:Q O *D sg13cmos5l_dfrbpq_1
*CAP
1 *2719:A 0
2 *2673:Q 0
3 *66:18 0.000706039
4 *66:12 0.00335147
5 *66:8 0.00738625
6 *66:6 0.00474081
7 *66:18 *107:8 0
8 *54:38 *66:8 0
*RES
1 *2673:Q *66:6 40 
2 *66:6 *66:8 61.4086 
3 *66:8 *66:12 48.8709 
4 *66:12 *66:18 48.755 
5 *66:18 *2719:A 20 
*END

*D_NET *67 0.000284107
*CONN
*I *2720:A I *D sg13cmos5l_buf_1
*I *2727:X O *D sg13cmos5l_buf_1
*CAP
1 *2720:A 0.000142054
2 *2727:X 0.000142054
3 *2720:A *105:87 0
4 rst *2720:A 0
*RES
1 *2727:X *2720:A 41.4008 
*END

*D_NET *68 0.00416649
*CONN
*I *2721:A I *D sg13cmos5l_buf_1
*I *2630:Y O *D sg13cmos5l_nor2b_1
*CAP
1 *2721:A 0
2 *2630:Y 0.00208325
3 *68:10 0.00208325
4 *68:10 *69:10 0
5 *68:10 *105:79 0
6 clk_ref *68:10 0
7 *2641:A2 *68:10 0
*RES
1 *2630:Y *68:10 39.9614 
2 *68:10 *2721:A 20 
*END

*D_NET *69 0.00592958
*CONN
*I *2722:A I *D sg13cmos5l_buf_1
*I *2631:Y O *D sg13cmos5l_nor2_1
*CAP
1 *2722:A 0
2 *2631:Y 0.00296479
3 *69:10 0.00296479
4 *69:10 *105:79 0
5 *2687:A *69:10 0
6 *49:6 *69:10 0
7 *49:19 *69:10 0
8 *68:10 *69:10 0
*RES
1 *2631:Y *69:10 49.3241 
2 *69:10 *2722:A 20 
*END

*D_NET *70 0.00106314
*CONN
*I *2665:RESET_B I *D sg13cmos5l_dfrbpq_1
*I *2666:L_HI O *D sg13cmos5l_tiehi
*CAP
1 *2665:RESET_B 0.000531571
2 *2666:L_HI 0.000531571
3 *2665:RESET_B *2669:RESET_B 0
4 *2665:RESET_B *108:6 0
5 *2650:B1 *2665:RESET_B 0
6 *3:43 *2665:RESET_B 0
7 *42:12 *2665:RESET_B 0
*RES
1 *2666:L_HI *2665:RESET_B 45.3766 
*END

*D_NET *71 0.000810235
*CONN
*I *2685:RESET_B I *D sg13cmos5l_dfrbpq_1
*I *2686:L_HI O *D sg13cmos5l_tiehi
*CAP
1 *2685:RESET_B 0.000405117
2 *2686:L_HI 0.000405117
3 *55:26 *2685:RESET_B 0
4 *55:35 *2685:RESET_B 0
*RES
1 *2686:L_HI *2685:RESET_B 44.7792 
*END

*D_NET *72 0.000806491
*CONN
*I *2673:RESET_B I *D sg13cmos5l_dfrbpq_1
*I *2674:L_HI O *D sg13cmos5l_tiehi
*CAP
1 *2673:RESET_B 0.000395517
2 *2674:L_HI 0.000395517
3 *3:26 *2673:RESET_B 0
4 *54:38 *2673:RESET_B 1.54556e-05
*RES
1 *2674:L_HI *2673:RESET_B 44.8616 
*END

*D_NET *73 0.000400129
*CONN
*I *2675:RESET_B I *D sg13cmos5l_dfrbpq_1
*I *2676:L_HI O *D sg13cmos5l_tiehi
*CAP
1 *2675:RESET_B 0.000200064
2 *2676:L_HI 0.000200064
3 *2675:RESET_B *96:14 0
*RES
1 *2676:L_HI *2675:RESET_B 42.1836 
*END

*D_NET *74 0.00100098
*CONN
*I *2677:RESET_B I *D sg13cmos5l_dfrbpq_1
*I *2678:L_HI O *D sg13cmos5l_tiehi
*CAP
1 *2677:RESET_B 0.000323083
2 *2678:L_HI 0.000323083
3 *2677:RESET_B *2669:RESET_B 0.000112812
4 *2677:RESET_B *2677:D 0.000242006
*RES
1 *2678:L_HI *2677:RESET_B 44.0582 
*END

*D_NET *75 0.00307721
*CONN
*I *2683:D I *D sg13cmos5l_dfrbpq_1
*I *2711:X O *D sg13cmos5l_buf_1
*CAP
1 *2683:D 0
2 *2711:X 0
3 *75:12 0.00153861
4 *75:6 0.00153861
5 *75:12 *2683:RESET_B 0
6 *2688:A *75:12 0
*RES
1 *2711:X *75:6 40 
2 *75:6 *75:12 37.1701 
3 *75:12 *2683:D 20 
*END

*D_NET *76 0.000791704
*CONN
*I *2679:RESET_B I *D sg13cmos5l_dfrbpq_1
*I *2680:L_HI O *D sg13cmos5l_tiehi
*CAP
1 *2679:RESET_B 0.000258453
2 *2680:L_HI 0.000258453
3 *57:16 *2679:RESET_B 0.000274798
*RES
1 *2680:L_HI *2679:RESET_B 43.1724 
*END

*D_NET *77 0.00109834
*CONN
*I *2681:RESET_B I *D sg13cmos5l_dfrbpq_1
*I *2682:L_HI O *D sg13cmos5l_tiehi
*CAP
1 *2681:RESET_B 0.000103101
2 *2682:L_HI 0.000446067
3 *77:10 0.000549168
4 *2681:RESET_B *2681:D 0
5 *77:10 *86:12 0
6 *2681:CLK *77:10 0
7 *3:26 *77:10 0
8 *50:11 *2681:RESET_B 0
9 *54:10 *77:10 0
*RES
1 *2682:L_HI *77:10 44.223 
2 *77:10 *2681:RESET_B 40.9682 
*END

*D_NET *78 0.000692152
*CONN
*I *2655:RESET_B I *D sg13cmos5l_dfrbpq_1
*I *2656:L_HI O *D sg13cmos5l_tiehi
*CAP
1 *2655:RESET_B 0.000257458
2 *2656:L_HI 0.000257458
3 *2646:C1 *2655:RESET_B 0
4 *51:10 *2655:RESET_B 0.000177236
*RES
1 *2656:L_HI *2655:RESET_B 42.6162 
*END

*D_NET *79 0.000552972
*CONN
*I *2671:RESET_B I *D sg13cmos5l_dfrbpq_1
*I *2672:L_HI O *D sg13cmos5l_tiehi
*CAP
1 *2671:RESET_B 0.000276486
2 *2672:L_HI 0.000276486
3 *2671:RESET_B *2671:D 0
4 *2671:CLK *2671:RESET_B 0
*RES
1 *2672:L_HI *2671:RESET_B 42.7192 
*END

*D_NET *80 0.000462986
*CONN
*I *2663:RESET_B I *D sg13cmos5l_dfrbpq_1
*I *2664:L_HI O *D sg13cmos5l_tiehi
*CAP
1 *2663:RESET_B 0.000231493
2 *2664:L_HI 0.000231493
3 *2647:B *2663:RESET_B 0
4 *59:16 *2663:RESET_B 0
*RES
1 *2664:L_HI *2663:RESET_B 42.1836 
*END

*D_NET *81 0.000509257
*CONN
*I *2667:RESET_B I *D sg13cmos5l_dfrbpq_1
*I *2668:L_HI O *D sg13cmos5l_tiehi
*CAP
1 *2667:RESET_B 0.000254629
2 *2668:L_HI 0.000254629
3 *2667:RESET_B *96:14 0
*RES
1 *2668:L_HI *2667:RESET_B 42.8634 
*END

*D_NET *82 0.00383755
*CONN
*I *2661:RESET_B I *D sg13cmos5l_dfrbpq_1
*I *2662:L_HI O *D sg13cmos5l_tiehi
*CAP
1 *2661:RESET_B 0.000349844
2 *2662:L_HI 0.000456853
3 *82:8 0.000806697
4 *2661:RESET_B *2659:RESET_B 0.00027377
5 *82:8 *2627:A 0.000372382
6 *82:8 *2633:C 0.00018128
7 *2646:B1 *2661:RESET_B 0.000209856
8 *22:10 *82:8 0
9 *37:33 *82:8 0
10 *39:12 *2661:RESET_B 7.98779e-05
11 *42:12 *82:8 0.000872684
12 *53:6 *2661:RESET_B 0
13 *53:8 *2661:RESET_B 0
14 *53:10 *2661:RESET_B 0
15 *60:33 *2661:RESET_B 0
16 *60:52 *82:8 0.000234311
*RES
1 *2662:L_HI *82:8 46.5302 
2 *82:8 *2661:RESET_B 44.017 
*END

*D_NET *83 0.00146859
*CONN
*I *2669:RESET_B I *D sg13cmos5l_dfrbpq_1
*I *2670:L_HI O *D sg13cmos5l_tiehi
*CAP
1 *2669:RESET_B 0.000677891
2 *2670:L_HI 0.000677891
3 *2669:RESET_B *2695:A 0
4 *2650:B1 *2669:RESET_B 0
5 *2665:RESET_B *2669:RESET_B 0
6 *2677:RESET_B *2669:RESET_B 0.000112812
*RES
1 *2670:L_HI *2669:RESET_B 47.107 
*END

*D_NET *84 0.00296428
*CONN
*I *2659:RESET_B I *D sg13cmos5l_dfrbpq_1
*I *2660:L_HI O *D sg13cmos5l_tiehi
*CAP
1 *2659:RESET_B 0.000238907
2 *2660:L_HI 0.000494911
3 *84:10 0.000733817
4 *84:10 *102:24 0
5 *2646:B1 *2659:RESET_B 0.000403136
6 *2661:RESET_B *2659:RESET_B 0.00027377
7 *39:12 *2659:RESET_B 0
8 *59:54 *84:10 0
9 *60:52 *84:10 0.000819739
*RES
1 *2660:L_HI *84:10 45.6444 
2 *84:10 *2659:RESET_B 42.6986 
*END

*D_NET *85 0.00241501
*CONN
*I *2657:RESET_B I *D sg13cmos5l_dfrbpq_1
*I *2658:L_HI O *D sg13cmos5l_tiehi
*CAP
1 *2657:RESET_B 5.56078e-05
2 *2658:L_HI 0.000515697
3 *85:8 0.000571305
4 *2639:B *85:8 0
5 *2646:B1 *2657:RESET_B 8.0194e-05
6 *23:10 *85:8 0.00119221
7 *34:46 *85:8 0
8 *37:10 *85:8 0
*RES
1 *2658:L_HI *85:8 46.283 
2 *85:8 *2657:RESET_B 40.5356 
*END

*D_NET *86 0.00546137
*CONN
*I *2679:D I *D sg13cmos5l_dfrbpq_1
*I *2712:X O *D sg13cmos5l_buf_1
*CAP
1 *2679:D 0
2 *2712:X 0.000166854
3 *86:12 0.00193847
4 *86:8 0.00210533
5 *86:12 *110:8 0
6 *2667:CLK *86:12 0.00071625
7 *2681:CLK *86:12 0
8 *2712:A *86:8 0
9 *54:10 *86:12 0.000534469
10 *77:10 *86:12 0
*RES
1 *2712:X *86:8 41.8334 
2 *86:8 *86:12 44.823 
3 *86:12 *2679:D 20 
*END

*D_NET *87 0.000458606
*CONN
*I *2683:RESET_B I *D sg13cmos5l_dfrbpq_1
*I *2684:L_HI O *D sg13cmos5l_tiehi
*CAP
1 *2683:RESET_B 0.000229303
2 *2684:L_HI 0.000229303
3 *55:26 *2683:RESET_B 0
4 *75:12 *2683:RESET_B 0
*RES
1 *2684:L_HI *2683:RESET_B 40.865 
*END

*D_NET *88 0.000526217
*CONN
*I *2677:D I *D sg13cmos5l_dfrbpq_1
*I *2695:X O *D sg13cmos5l_dlygate4sd3_1
*CAP
1 *2677:D 0.000142105
2 *2695:X 0.000142105
3 *2677:RESET_B *2677:D 0.000242006
4 *27:10 *2677:D 0
*RES
1 *2695:X *2677:D 41.6171 
*END

*D_NET *89 0.000867243
*CONN
*I *2685:D I *D sg13cmos5l_dfrbpq_1
*I *2696:X O *D sg13cmos5l_dlygate4sd3_1
*CAP
1 *2685:D 0
2 *2696:X 0.000433622
3 *89:10 0.000433622
4 *89:10 *109:8 0
*RES
1 *2696:X *89:10 44.4393 
2 *89:10 *2685:D 40 
*END

*D_NET *90 0.000296909
*CONN
*I *2681:D I *D sg13cmos5l_dfrbpq_1
*I *2697:X O *D sg13cmos5l_dlygate4sd3_1
*CAP
1 *2681:D 0.000148455
2 *2697:X 0.000148455
3 *2681:RESET_B *2681:D 0
4 *50:11 *2681:D 0
*RES
1 *2697:X *2681:D 41.5347 
*END

*D_NET *91 0.00034603
*CONN
*I *2673:D I *D sg13cmos5l_dfrbpq_1
*I *2698:X O *D sg13cmos5l_dlygate4sd3_1
*CAP
1 *2673:D 0.000173015
2 *2698:X 0.000173015
*RES
1 *2698:X *2673:D 41.9673 
*END

*D_NET *92 0.0040919
*CONN
*I *2625:A I *D sg13cmos5l_inv_1
*I *2652:A1 I *D sg13cmos5l_a21oi_1
*I *2699:X O *D sg13cmos5l_dlygate4sd3_1
*CAP
1 *2625:A 0.000603649
2 *2652:A1 0.000631566
3 *2699:X 0.000149327
4 *92:8 0.00138454
5 *92:8 *105:37 0
6 *2650:B1 *2625:A 0
7 *2652:B1 *2652:A1 0.000111481
8 *2665:CLK *2625:A 1.54008e-05
9 *2665:CLK *2652:A1 0
10 *2669:CLK *2625:A 0
11 *3:43 *2625:A 0
12 *3:43 *2652:A1 0
13 *3:49 *2652:A1 0
14 *3:49 *92:8 0
15 *28:14 *2625:A 0
16 *45:8 *2625:A 0
17 *45:39 *2625:A 0.000760942
18 *45:39 *2652:A1 0.000434988
19 *50:34 *2652:A1 0
20 *52:8 *2625:A 0
*RES
1 *2699:X *92:8 41.5862 
2 *92:8 *2652:A1 46.4838 
3 *92:8 *2625:A 46.9422 
*END

*D_NET *93 0.00111482
*CONN
*I *2665:D I *D sg13cmos5l_dfrbpq_1
*I *2700:X O *D sg13cmos5l_dlygate4sd3_1
*CAP
1 *2665:D 0
2 *2700:X 0.000265293
3 *93:10 0.000265293
4 *93:10 *105:37 0.000342122
5 *2650:B1 *93:10 0.00024211
6 *3:43 *93:10 0
7 *42:12 *93:10 0
*RES
1 *2700:X *93:10 43.2033 
2 *93:10 *2665:D 40 
*END

*D_NET *94 0.00300169
*CONN
*I *2654:B I *D sg13cmos5l_and2_1
*I *2701:X O *D sg13cmos5l_dlygate4sd3_1
*CAP
1 *2654:B 0
2 *2701:X 0.00141226
3 *94:8 0.00141226
4 *94:8 *105:37 0.000177164
*RES
1 *2701:X *94:8 35.3779 
2 *94:8 *2654:B 20 
*END

*D_NET *95 0.00211849
*CONN
*I *2636:B I *D sg13cmos5l_xnor2_1
*I *2628:A I *D sg13cmos5l_inv_1
*I *2702:X O *D sg13cmos5l_dlygate4sd3_1
*CAP
1 *2636:B 0.000171685
2 *2628:A 0.000519533
3 *2702:X 0
4 *95:6 0.000691218
5 *2628:A *2634:B1 0.000144735
6 *2628:A *105:49 0
7 *2636:A *2636:B 0.0001127
8 *2648:B1 *2628:A 0
9 *2648:A1 *2628:A 4.77534e-05
10 *2648:A2 *2628:A 0
11 *2648:A2 *2636:B 0
12 *28:14 *2628:A 0.000287672
13 *31:12 *2628:A 8.00521e-05
14 *34:18 *2636:B 0
15 *36:8 *2636:B 1.54008e-05
16 *44:33 *2628:A 0
17 *46:10 *2628:A 4.77425e-05
18 *63:14 *2628:A 0
19 *63:14 *2636:B 0
*RES
1 *2702:X *95:6 40 
2 *95:6 *2628:A 45.6753 
3 *95:6 *2636:B 41.8437 
*END

*D_NET *96 0.0121276
*CONN
*I *2675:D I *D sg13cmos5l_dfrbpq_1
*I *2713:X O *D sg13cmos5l_buf_1
*CAP
1 *2675:D 0
2 *2713:X 0.00104441
3 *96:14 0.0028656
4 *96:12 0.0028656
5 *96:10 0.0021538
6 *96:6 0.00319821
7 *2667:RESET_B *96:14 0
8 *2667:CLK *96:14 0
9 *2675:RESET_B *96:14 0
10 *2713:A *96:6 0
*RES
1 *2713:X *96:6 31.3506 
2 *96:6 *96:10 47.5422 
3 *96:10 *96:12 20 
4 *96:12 *96:14 31.2502 
5 *96:14 *2675:D 20 
*END

*D_NET *97 0.00170835
*CONN
*I *2655:D I *D sg13cmos5l_dfrbpq_1
*I *2703:X O *D sg13cmos5l_dlygate4sd3_1
*CAP
1 *2655:D 0
2 *2703:X 0.0003821
3 *97:10 0.0003821
4 *97:10 *105:64 0
5 *97:10 *105:79 0
6 *2645:A1 *97:10 0.000176614
7 *2645:A2 *97:10 0
8 *56:34 *97:10 0.000767537
*RES
1 *2703:X *97:10 44.7483 
2 *97:10 *2655:D 40 
*END

*D_NET *98 0.00497512
*CONN
*I *2626:A I *D sg13cmos5l_inv_1
*I *2647:A I *D sg13cmos5l_nand4_1
*I *2633:B I *D sg13cmos5l_nor4_1
*I *2704:X O *D sg13cmos5l_dlygate4sd3_1
*CAP
1 *2626:A 0
2 *2647:A 4.048e-05
3 *2633:B 1.78164e-05
4 *2704:X 0.000144435
5 *98:30 0.000676733
6 *98:20 0.00108286
7 *98:10 0.000383467
8 *98:8 0.000144435
9 *98:30 *2663:D 0
10 *2632:B *98:20 0.000159096
11 *2633:A *2633:B 6.16032e-06
12 *2647:D *98:20 0.000183242
13 *2650:A1 *98:30 0.000446352
14 *24:8 *98:30 0
15 *29:8 *98:20 7.91262e-05
16 *33:10 *98:20 0.000500717
17 *42:12 *98:30 0
18 *50:34 *98:30 0
19 *55:49 *98:20 0
20 *59:16 *98:20 0.000102147
21 *59:16 *98:30 0.000932924
22 *59:33 *98:8 7.51285e-05
23 *59:33 *98:20 0
24 *59:39 *98:20 0
25 *61:8 *98:8 0
*RES
1 *2704:X *98:8 41.5862 
2 *98:8 *98:10 20 
3 *98:10 *98:20 25.2015 
4 *98:20 *98:30 47.8177 
5 *98:30 *2633:B 40.1468 
6 *98:20 *2647:A 40.2987 
7 *98:10 *2626:A 20 
*END

*D_NET *99 0.000319065
*CONN
*I *2663:D I *D sg13cmos5l_dfrbpq_1
*I *2705:X O *D sg13cmos5l_dlygate4sd3_1
*CAP
1 *2663:D 0.000159533
2 *2705:X 0.000159533
3 *50:34 *2663:D 0
4 *98:30 *2663:D 0
*RES
1 *2705:X *2663:D 41.1845 
*END

*D_NET *100 0.00420294
*CONN
*I *2643:A I *D sg13cmos5l_and2_1
*I *2627:A I *D sg13cmos5l_inv_1
*I *2633:C I *D sg13cmos5l_nor4_1
*I *2706:X O *D sg13cmos5l_dlygate4sd3_1
*CAP
1 *2643:A 0.000257157
2 *2627:A 0.000326162
3 *2633:C 0.000517221
4 *2706:X 0
5 *100:6 0.000843384
6 *100:4 0.000257157
7 *2646:B1 *2643:A 0
8 *2650:A1 *2633:C 0
9 *34:61 *2633:C 0.000767035
10 *37:33 *2627:A 0.000393736
11 *37:33 *2633:C 0.00028743
12 *42:12 *2633:C 0
13 *59:39 *2633:C 0
14 *60:52 *2633:C 0
15 *82:8 *2627:A 0.000372382
16 *82:8 *2633:C 0.00018128
*RES
1 *2706:X *100:4 20 
2 *100:4 *100:6 20 
3 *100:6 *2633:C 46.283 
4 *100:6 *2627:A 43.8831 
5 *100:4 *2643:A 22.2145 
*END

*D_NET *101 0.000617051
*CONN
*I *2661:D I *D sg13cmos5l_dfrbpq_1
*I *2707:X O *D sg13cmos5l_dlygate4sd3_1
*CAP
1 *2661:D 0
2 *2707:X 0.000308526
3 *101:8 0.000308526
4 *3:49 *101:8 0
5 *22:10 *101:8 0
6 *30:8 *101:8 0
*RES
1 *2707:X *101:8 42.8222 
2 *101:8 *2661:D 40 
*END

*D_NET *102 0.00325094
*CONN
*I *2640:C I *D sg13cmos5l_nand3b_1
*I *2641:A1 I *D sg13cmos5l_o21ai_1
*I *2708:X O *D sg13cmos5l_dlygate4sd3_1
*CAP
1 *2640:C 0
2 *2641:A1 0.000181714
3 *2708:X 0.000975684
4 *102:24 0.00079397
5 *102:24 *2642:A 0
6 rst *2641:A1 0
7 *2641:A2 *2641:A1 1.54556e-05
8 *2642:B_N *102:24 0
9 *2707:A *2641:A1 0
10 *2709:A *2641:A1 0
11 *22:10 *102:24 0.000144942
12 *37:25 *2641:A1 0
13 *37:25 *102:24 0
14 *59:39 *102:24 0.000395067
15 *59:54 *102:24 0.000744108
16 *60:52 *102:24 0
17 *84:10 *102:24 0
*RES
1 *2708:X *2641:A1 41.9982 
2 *2708:X *102:24 49.8777 
3 *102:24 *2640:C 40 
*END

*D_NET *103 0.000508551
*CONN
*I *2642:A I *D sg13cmos5l_nor2b_1
*I *2709:X O *D sg13cmos5l_dlygate4sd3_1
*CAP
1 *2642:A 0.000181804
2 *2709:X 0.000181804
3 *22:10 *2642:A 0.000144942
4 *102:24 *2642:A 0
*RES
1 *2709:X *2642:A 41.9673 
*END

*D_NET *104 0.00586157
*CONN
*I *2671:D I *D sg13cmos5l_dfrbpq_1
*I *2714:X O *D sg13cmos5l_buf_1
*CAP
1 *2671:D 0.00122245
2 *2714:X 0
3 *104:10 0.00293078
4 *104:6 0.00170833
5 *2671:RESET_B *2671:D 0
*RES
1 *2714:X *104:6 40 
2 *104:6 *104:10 42.1038 
3 *104:10 *2671:D 32.8647 
*END

*D_NET *105 0.0321084
*CONN
*I *2653:A I *D sg13cmos5l_and2_1
*I *2629:A I *D sg13cmos5l_inv_1
*I *2639:A I *D sg13cmos5l_and2_1
*I *2727:A I *D sg13cmos5l_buf_1
*I *2641:B1 I *D sg13cmos5l_o21ai_1
*I *2645:B1 I *D sg13cmos5l_o21ai_1
*I *2634:B1 I *D sg13cmos5l_o21ai_1
*I *2654:A I *D sg13cmos5l_and2_1
*I *2715:X O *D sg13cmos5l_buf_1
*CAP
1 *2653:A 0
2 *2629:A 0.000153367
3 *2639:A 0
4 *2727:A 0.000106012
5 *2641:B1 2.09497e-05
6 *2645:B1 8.61532e-05
7 *2634:B1 0.000185884
8 *2654:A 0
9 *2715:X 0
10 *105:87 0.000462235
11 *105:79 0.0013649
12 *105:64 0.00161457
13 *105:49 0.00158775
14 *105:37 0.00195367
15 *105:26 0.00169922
16 *105:22 0.00340765
17 *105:18 0.00260566
18 *105:16 0.00149885
19 *105:12 0.00367691
20 *105:8 0.00487415
21 *105:6 0.00269609
22 *105:37 *108:10 0
23 rst *2641:B1 0
24 rst *2727:A 0
25 rst *105:87 0
26 *2628:A *2634:B1 0.000144735
27 *2628:A *105:49 0
28 *2633:A *2629:A 1.17989e-05
29 *2634:A1 *105:49 0
30 *2639:B *105:79 0.000209681
31 *2641:A2 *2641:B1 3.24568e-05
32 *2641:A2 *105:79 0.000501463
33 *2641:A2 *105:87 8.03692e-05
34 *2645:A2 *2645:B1 0.000144298
35 *2646:C1 *2645:B1 7.96143e-05
36 *2647:B *2629:A 0
37 *2648:B1 *105:49 0
38 *2649:A *105:49 0.000436407
39 *2687:A *105:79 0
40 *2699:A *105:49 0
41 *2702:A *105:49 4.79124e-05
42 *2709:A *2727:A 0
43 *2720:A *105:87 0
44 *3:49 *2629:A 0
45 *3:49 *105:37 0
46 *3:65 *105:79 0
47 *26:10 *105:22 0
48 *31:12 *105:64 0.000234224
49 *32:12 *2629:A 0
50 *32:12 *105:49 0
51 *34:18 *105:49 0
52 *35:12 *2634:B1 0
53 *35:12 *105:49 4.72956e-05
54 *35:12 *105:64 0.000234224
55 *42:12 *105:37 0
56 *44:16 *105:49 0
57 *46:10 *105:49 4.77425e-05
58 *47:10 *2629:A 0
59 *47:10 *105:49 0.000468912
60 *50:54 *105:37 0
61 *51:10 *105:79 0.000873929
62 *56:23 *105:64 0
63 *56:34 *105:64 0
64 *56:34 *105:79 0
65 *59:8 *105:37 0
66 *64:8 *105:16 0
67 *65:8 *105:26 0
68 *68:10 *105:79 0
69 *69:10 *105:79 0
70 *92:8 *105:37 0
71 *93:10 *105:37 0.000342122
72 *94:8 *105:37 0.000177164
73 *97:10 *105:64 0
74 *97:10 *105:79 0
*RES
1 *2715:X *105:6 40 
2 *105:6 *105:8 34.711 
3 *105:8 *105:12 43.4634 
4 *105:12 *105:16 39.6318 
5 *105:16 *105:18 20 
6 *105:18 *105:22 48.222 
7 *105:22 *105:26 29.991 
8 *105:26 *2654:A 20 
9 *105:26 *105:37 30.6811 
10 *105:37 *105:49 29.4451 
11 *105:49 *2634:B1 21.9158 
12 *105:49 *105:64 25.2942 
13 *105:64 *2645:B1 40.9682 
14 *105:64 *105:79 31.7008 
15 *105:79 *105:87 43.3269 
16 *105:87 *2641:B1 20.3193 
17 *105:87 *2727:A 21.339 
18 *105:79 *2639:A 20 
19 *105:37 *2629:A 41.6042 
20 *105:18 *2653:A 20 
*END

*D_NET *106 0.00083975
*CONN
*I *2723:A I *D sg13cmos5l_buf_1
*I *2726:X O *D sg13cmos5l_buf_1
*CAP
1 *2723:A 0
2 *2726:X 0.000419875
3 *106:10 0.000419875
4 *49:6 *106:10 0
5 *49:19 *106:10 0
*RES
1 *2726:X *106:10 44.223 
2 *106:10 *2723:A 40 
*END

*D_NET *107 0.0180434
*CONN
*I *2724:A I *D sg13cmos5l_buf_1
*I *2685:Q O *D sg13cmos5l_dfrbpq_1
*CAP
1 *2724:A 0
2 *2685:Q 0
3 *107:18 0.000181991
4 *107:12 0.00332209
5 *107:10 0.0031401
6 *107:8 0.00569961
7 *107:6 0.00569961
8 *107:12 *108:18 0
9 *59:16 *107:8 0
10 *66:18 *107:8 0
*RES
1 *2685:Q *107:6 40 
2 *107:6 *107:8 72.7798 
3 *107:8 *107:10 20 
4 *107:10 *107:12 34.4947 
5 *107:12 *107:18 42.3278 
6 *107:18 *2724:A 20 
*END

*D_NET *108 0.0181436
*CONN
*I *2725:A I *D sg13cmos5l_buf_1
*I *2681:Q O *D sg13cmos5l_dfrbpq_1
*CAP
1 *2725:A 0
2 *2681:Q 0.0018693
3 *108:18 0.00159649
4 *108:10 0.00709765
5 *108:8 0.00550116
6 *108:6 0.0018693
7 q2_d *108:18 0.000209681
8 *2665:RESET_B *108:6 0
9 *2701:A *108:6 0
10 *3:26 *108:6 0
11 *3:43 *108:6 0
12 *42:12 *108:6 0
13 *57:16 *108:6 0
14 *105:37 *108:10 0
15 *107:12 *108:18 0
*RES
1 *2681:Q *108:6 36.3719 
2 *108:6 *108:8 20 
3 *108:8 *108:10 67.5886 
4 *108:10 *108:18 37.2113 
5 *108:18 *2725:A 20 
*END

*D_NET *109 0.000905179
*CONN
*I *2696:A I *D sg13cmos5l_dlygate4sd3_1
*I *2683:Q O *D sg13cmos5l_dfrbpq_1
*CAP
1 *2696:A 3.39846e-05
2 *2683:Q 0.000418605
3 *109:8 0.00045259
4 *89:10 *109:8 0
*RES
1 *2683:Q *109:8 45.047 
2 *109:8 *2696:A 40.3193 
*END

*D_NET *110 0.000688172
*CONN
*I *2697:A I *D sg13cmos5l_dlygate4sd3_1
*I *2679:Q O *D sg13cmos5l_dfrbpq_1
*CAP
1 *2697:A 3.46921e-05
2 *2679:Q 0.000309394
3 *110:8 0.000344086
4 *86:12 *110:8 0
*RES
1 *2679:Q *110:8 42.8222 
2 *110:8 *2697:A 40.3193 
*END

*D_NET *111 0.00104897
*CONN
*I *2695:A I *D sg13cmos5l_dlygate4sd3_1
*I *2675:Q O *D sg13cmos5l_dfrbpq_1
*CAP
1 *2695:A 0.000147321
2 *2675:Q 0.000256056
3 *111:8 0.000403377
4 *2650:B1 *2695:A 0.00024222
5 *2669:RESET_B *2695:A 0
6 *65:8 *111:8 0
*RES
1 *2675:Q *111:8 42.3278 
2 *111:8 *2695:A 41.6171 
*END

*D_NET *112 0.00051064
*CONN
*I *2698:A I *D sg13cmos5l_dlygate4sd3_1
*I *2671:Q O *D sg13cmos5l_dfrbpq_1
*CAP
1 *2698:A 3.21805e-05
2 *2671:Q 0.00022314
3 *112:8 0.00025532
*RES
1 *2671:Q *112:8 42.8222 
2 *112:8 *2698:A 40.3193 
*END
