*SPEF "ieee 1481-1999"
*DESIGN "pfd"
*DATE "15:34:48 Monday September 21, 2026"
*VENDOR "The OpenROAD Project"
*PROGRAM "OpenROAD"
*VERSION "dcf36133a369abc8f3c5e5738cd4d82e4903c0e0"
*DESIGN_FLOW "NAME_SCOPE LOCAL" "PIN_CAP NONE"
*DIVIDER /
*DELIMITER :
*BUS_DELIMITER []
*T_UNIT 1 NS
*C_UNIT 1 PF
*R_UNIT 1 OHM
*L_UNIT 1 HENRY

*NAME_MAP
*3 clk_fb
*4 clk_ref
*5 dn
*6 rst_ni
*7 up
*8 _000_
*9 _001_
*10 _002_
*11 _003_
*12 _004_
*13 _005_
*14 _006_
*15 _007_
*16 _008_
*17 _009_
*18 _010_
*19 _011_
*20 _012_
*21 _013_
*22 _014_
*23 _015_
*24 _016_
*25 _017_
*26 _018_
*27 _019_
*28 _020_
*29 _021_
*30 _022_
*31 _023_
*32 _024_
*33 _025_
*34 _026_
*35 _027_
*36 _028_
*37 _029_
*38 _030_
*39 _031_
*40 _032_
*41 _033_
*42 _034_
*43 _035_
*44 _036_
*45 _037_
*46 _038_
*47 _039_
*48 _040_
*49 _041_
*50 _042_
*51 _043_
*52 _044_
*53 _045_
*54 _046_
*55 _047_
*56 _048_
*57 _049_
*58 _050_
*59 _051_
*60 _052_
*61 _053_
*62 _054_
*63 _055_
*64 _056_
*65 _057_
*66 _058_
*67 _059_
*68 _060_
*69 _061_
*70 _062_
*71 _063_
*72 _064_
*73 _065_
*74 _066_
*75 clk_fb_div
*76 clk_ref_div
*77 clknet_0_clk_fb
*78 clknet_0_clk_ref
*79 clknet_1_0__leaf_clk_fb
*80 clknet_1_0__leaf_clk_ref
*81 clknet_1_1__leaf_clk_fb
*82 clknet_1_1__leaf_clk_ref
*83 fb_count\[0\]
*84 fb_count\[1\]
*85 fb_count\[2\]
*86 fb_count\[3\]
*87 fb_count\[4\]
*88 fb_count\[5\]
*89 fb_count\[6\]
*90 fb_count\[7\]
*91 fb_count\[8\]
*92 fb_count\[9\]
*93 net
*94 net1
*95 net10
*96 net11
*97 net12
*98 net13
*99 net14
*100 net15
*101 net16
*102 net17
*103 net18
*104 net19
*105 net2
*106 net20
*107 net21
*108 net22
*109 net23
*110 net24
*111 net25
*112 net26
*113 net3
*114 net4
*115 net5
*116 net6
*117 net7
*118 net8
*119 net9
*120 ref_count\[0\]
*121 ref_count\[1\]
*122 ref_count\[2\]
*123 ref_count\[3\]
*124 ref_count\[4\]
*125 ref_count\[5\]
*126 ref_count\[6\]
*127 FILLER_0_0
*128 FILLER_0_106
*129 FILLER_0_113
*130 FILLER_0_120
*131 FILLER_0_127
*132 FILLER_0_134
*133 FILLER_0_14
*134 FILLER_0_141
*135 FILLER_0_148
*136 FILLER_0_155
*137 FILLER_0_162
*138 FILLER_0_169
*139 FILLER_0_176
*140 FILLER_0_183
*141 FILLER_0_190
*142 FILLER_0_21
*143 FILLER_0_28
*144 FILLER_0_35
*145 FILLER_0_42
*146 FILLER_0_49
*147 FILLER_0_56
*148 FILLER_0_63
*149 FILLER_0_7
*150 FILLER_0_70
*151 FILLER_0_77
*152 FILLER_0_84
*153 FILLER_0_91
*154 FILLER_0_99
*155 FILLER_10_0
*156 FILLER_10_120
*157 FILLER_10_127
*158 FILLER_10_134
*159 FILLER_10_141
*160 FILLER_10_148
*161 FILLER_10_155
*162 FILLER_10_162
*163 FILLER_10_169
*164 FILLER_10_176
*165 FILLER_10_183
*166 FILLER_10_19
*167 FILLER_10_190
*168 FILLER_10_21
*169 FILLER_10_26
*170 FILLER_10_28
*171 FILLER_10_56
*172 FILLER_10_69
*173 FILLER_10_7
*174 FILLER_11_0
*175 FILLER_11_123
*176 FILLER_11_130
*177 FILLER_11_137
*178 FILLER_11_14
*179 FILLER_11_144
*180 FILLER_11_151
*181 FILLER_11_158
*182 FILLER_11_165
*183 FILLER_11_172
*184 FILLER_11_179
*185 FILLER_11_186
*186 FILLER_11_190
*187 FILLER_11_21
*188 FILLER_11_28
*189 FILLER_11_67
*190 FILLER_11_7
*191 FILLER_12_0
*192 FILLER_12_101
*193 FILLER_12_116
*194 FILLER_12_123
*195 FILLER_12_130
*196 FILLER_12_137
*197 FILLER_12_14
*198 FILLER_12_144
*199 FILLER_12_146
*200 FILLER_12_151
*201 FILLER_12_158
*202 FILLER_12_165
*203 FILLER_12_172
*204 FILLER_12_179
*205 FILLER_12_186
*206 FILLER_12_190
*207 FILLER_12_21
*208 FILLER_12_28
*209 FILLER_12_30
*210 FILLER_12_7
*211 FILLER_12_86
*212 FILLER_12_94
*213 FILLER_1_0
*214 FILLER_1_104
*215 FILLER_1_111
*216 FILLER_1_118
*217 FILLER_1_125
*218 FILLER_1_132
*219 FILLER_1_139
*220 FILLER_1_14
*221 FILLER_1_146
*222 FILLER_1_153
*223 FILLER_1_160
*224 FILLER_1_167
*225 FILLER_1_174
*226 FILLER_1_181
*227 FILLER_1_188
*228 FILLER_1_21
*229 FILLER_1_28
*230 FILLER_1_35
*231 FILLER_1_42
*232 FILLER_1_49
*233 FILLER_1_56
*234 FILLER_1_63
*235 FILLER_1_7
*236 FILLER_1_70
*237 FILLER_1_77
*238 FILLER_1_84
*239 FILLER_1_88
*240 FILLER_2_0
*241 FILLER_2_119
*242 FILLER_2_126
*243 FILLER_2_133
*244 FILLER_2_14
*245 FILLER_2_169
*246 FILLER_2_176
*247 FILLER_2_183
*248 FILLER_2_190
*249 FILLER_2_21
*250 FILLER_2_28
*251 FILLER_2_35
*252 FILLER_2_42
*253 FILLER_2_49
*254 FILLER_2_56
*255 FILLER_2_63
*256 FILLER_2_7
*257 FILLER_2_70
*258 FILLER_2_77
*259 FILLER_3_0
*260 FILLER_3_112
*261 FILLER_3_119
*262 FILLER_3_126
*263 FILLER_3_14
*264 FILLER_3_152
*265 FILLER_3_159
*266 FILLER_3_161
*267 FILLER_3_189
*268 FILLER_3_191
*269 FILLER_3_21
*270 FILLER_3_28
*271 FILLER_3_35
*272 FILLER_3_42
*273 FILLER_3_50
*274 FILLER_3_57
*275 FILLER_3_64
*276 FILLER_3_7
*277 FILLER_3_71
*278 FILLER_3_78
*279 FILLER_3_80
*280 FILLER_4_0
*281 FILLER_4_106
*282 FILLER_4_110
*283 FILLER_4_115
*284 FILLER_4_122
*285 FILLER_4_129
*286 FILLER_4_133
*287 FILLER_4_14
*288 FILLER_4_140
*289 FILLER_4_164
*290 FILLER_4_166
*291 FILLER_4_171
*292 FILLER_4_178
*293 FILLER_4_185
*294 FILLER_4_21
*295 FILLER_4_28
*296 FILLER_4_56
*297 FILLER_4_62
*298 FILLER_4_69
*299 FILLER_4_7
*300 FILLER_4_73
*301 FILLER_5_0
*302 FILLER_5_123
*303 FILLER_5_130
*304 FILLER_5_137
*305 FILLER_5_139
*306 FILLER_5_151
*307 FILLER_5_153
*308 FILLER_5_172
*309 FILLER_5_186
*310 FILLER_5_19
*311 FILLER_5_190
*312 FILLER_5_21
*313 FILLER_5_26
*314 FILLER_5_28
*315 FILLER_5_68
*316 FILLER_5_7
*317 FILLER_5_77
*318 FILLER_5_81
*319 FILLER_5_91
*320 FILLER_5_93
*321 FILLER_6_0
*322 FILLER_6_123
*323 FILLER_6_130
*324 FILLER_6_134
*325 FILLER_6_161
*326 FILLER_6_189
*327 FILLER_6_19
*328 FILLER_6_191
*329 FILLER_6_21
*330 FILLER_6_26
*331 FILLER_6_30
*332 FILLER_6_7
*333 FILLER_6_90
*334 FILLER_6_94
*335 FILLER_7_0
*336 FILLER_7_123
*337 FILLER_7_130
*338 FILLER_7_137
*339 FILLER_7_144
*340 FILLER_7_148
*341 FILLER_7_166
*342 FILLER_7_176
*343 FILLER_7_183
*344 FILLER_7_19
*345 FILLER_7_190
*346 FILLER_7_26
*347 FILLER_7_28
*348 FILLER_7_4
*349 FILLER_7_94
*350 FILLER_8_0
*351 FILLER_8_105
*352 FILLER_8_112
*353 FILLER_8_119
*354 FILLER_8_126
*355 FILLER_8_133
*356 FILLER_8_140
*357 FILLER_8_189
*358 FILLER_8_19
*359 FILLER_8_191
*360 FILLER_8_26
*361 FILLER_8_7
*362 FILLER_9_0
*363 FILLER_9_123
*364 FILLER_9_130
*365 FILLER_9_132
*366 FILLER_9_165
*367 FILLER_9_172
*368 FILLER_9_179
*369 FILLER_9_186
*370 FILLER_9_19
*371 FILLER_9_190
*372 FILLER_9_26
*373 FILLER_9_28
*374 FILLER_9_53
*375 FILLER_9_7
*376 FILLER_9_74
*377 FILLER_9_94
*378 _069_
*379 _070_
*380 _071_
*381 _072_
*382 _073_
*383 _074_
*384 _075_
*385 _076_
*386 _077_
*387 _078_
*388 _079_
*389 _080_
*390 _081_
*391 _082_
*392 _083_
*393 _084_
*394 _085_
*395 _086_
*396 _087_
*397 _088_
*398 _089_
*399 _090_
*400 _091_
*401 _092_
*402 _093_
*403 _094_
*404 _095_
*405 _096_
*406 _097_
*407 _098_
*408 _099_
*409 _100_
*410 _101_
*411 _102_
*412 _103_
*413 _104_
*414 _105_
*415 _106_
*416 _107_
*417 _108_
*418 _109_
*419 _110_
*420 _111_
*421 _112_
*422 _113_
*423 _114_
*424 _115_
*425 _116_
*426 _117_
*427 _118_
*428 _119_
*429 _120_
*430 _121_
*431 _122_
*432 _123_
*433 _124_
*434 _125_
*435 _126_
*436 _127_
*437 _128_
*438 _129_
*439 _130_
*440 _131_
*441 _132_
*442 _133_
*443 _134_
*444 _135_
*445 _136_
*446 _136__10
*447 _137_
*448 _137__11
*449 _138_
*450 _139_
*451 _140_
*452 _141_
*453 _142_
*454 _143_
*455 _144_
*456 _145_
*457 _146_
*458 _147_
*459 _148_
*460 _149_
*461 _150_
*462 _151_
*463 _152_
*464 _153_
*465 _154_
*466 _155_
*467 _156_
*468 clkbuf_0_clk_fb
*469 clkbuf_0_clk_ref
*470 clkbuf_1_0__f_clk_fb
*471 clkbuf_1_0__f_clk_ref
*472 clkbuf_1_1__f_clk_fb
*473 clkbuf_1_1__f_clk_ref
*474 clkload0
*475 fanout4
*476 fanout5
*477 fanout6
*478 fanout7
*479 fanout8
*480 fanout9
*481 hold12
*482 hold13
*483 hold14
*484 hold15
*485 hold16
*486 hold17
*487 hold18
*488 hold19
*489 hold20
*490 hold21
*491 hold22
*492 hold23
*493 hold24
*494 hold25
*495 hold26
*496 hold27
*497 input1
*498 output2
*499 output3

*PORTS
clk_fb I
clk_ref I
dn O
rst_ni I
up O

*D_NET *3 0.00252752
*CONN
*P clk_fb I
*I *468:A I *D sg13cmos5l_buf_8
*CAP
1 clk_fb 0.00116811
2 *468:A 9.56541e-05
3 *3:6 0.00126376
4 *468:A *42:16 0
5 *468:A *119:71 0
6 *3:6 *385:B_N 0
7 *3:6 *8:12 0
8 *3:6 *37:8 0
9 *3:6 *54:25 0
10 *3:6 *77:31 0
11 *3:6 *89:8 0
12 *3:6 *90:21 0
13 *3:6 *92:27 0
14 *3:6 *119:79 0
*RES
1 clk_fb *3:6 13.4003 
2 *3:6 *468:A 40.9682 
*END

*D_NET *4 0.00462878
*CONN
*P clk_ref I
*I *469:A I *D sg13cmos5l_buf_8
*CAP
1 clk_ref 0.00220238
2 *469:A 0.00011201
3 *4:10 0.00231439
4 *469:A *436:A2 0
5 *469:A *78:8 0
6 *4:10 *429:C 0
7 *4:10 *430:A1 0
8 *4:10 *431:A 0
9 *4:10 *437:A1 0
10 *4:10 *465:D 0
11 *4:10 *484:A 0
12 *4:10 *30:8 0
13 *4:10 *58:33 0
14 *4:10 *68:10 0
15 *4:10 *78:17 0
16 *4:10 *103:8 0
17 *4:10 *112:8 0
18 *4:10 *114:46 0
19 *4:10 *116:10 0
*RES
1 clk_ref *4:10 40.3593 
2 *4:10 *469:A 20.9682 
*END

*D_NET *5 0.000727674
*CONN
*P dn O
*I *498:X O *D sg13cmos5l_buf_1
*CAP
1 dn 0.000363837
2 *498:X 0.000363837
*RES
1 *498:X dn 24.3775 
*END

*D_NET *6 0.000561316
*CONN
*P rst_ni I
*I *497:A I *D sg13cmos5l_buf_1
*CAP
1 rst_ni 0.000280658
2 *497:A 0.000280658
*RES
1 rst_ni *497:A 23.3269 
*END

*D_NET *7 0.00151016
*CONN
*P up O
*I *499:X O *D sg13cmos5l_buf_1
*CAP
1 up 0.0003508
2 *499:X 0.000206581
3 *7:8 0.000557381
4 *7:8 *63:10 0.000395396
5 *7:8 *113:20 0
*RES
1 *499:X *7:8 42.3278 
2 *7:8 up 24.0273 
*END

*D_NET *8 0.0102465
*CONN
*I *401:A I *D sg13cmos5l_nor2_1
*I *406:A I *D sg13cmos5l_nor2_1
*I *459:D I *D sg13cmos5l_dfrbpq_1
*I *394:A I *D sg13cmos5l_nor2_1
*I *391:A I *D sg13cmos5l_nor2_1
*I *388:Y O *D sg13cmos5l_nor3_1
*CAP
1 *401:A 0
2 *406:A 0.000183309
3 *459:D 0.00061552
4 *394:A 0
5 *391:A 0
6 *388:Y 0.000178107
7 *8:59 0.000410978
8 *8:32 0.000460524
9 *8:20 0.00079623
10 *8:14 0.00134255
11 *8:12 0.00134575
12 *8:10 0.000904868
13 *406:A *17:12 0.000306903
14 *406:A *119:26 0.000339245
15 *459:D *426:A 0
16 *459:D *492:A 0.00016733
17 *459:D *118:63 0
18 *459:D *118:70 0
19 *459:D *120:25 0.000274677
20 *459:D *125:6 0
21 *8:10 *42:16 4.78521e-05
22 *8:10 *54:10 4.78521e-05
23 *8:12 *77:15 0
24 *8:12 *90:10 0.00167273
25 *8:12 *90:21 2.20966e-05
26 *8:14 *456:D 0
27 *8:14 *77:15 0
28 *8:14 *119:28 0
29 *8:20 *394:B 0
30 *8:20 *429:C 0.000128663
31 *8:20 *464:RESET_B 0.000241313
32 *8:20 *478:A 0
33 *8:20 *24:12 0
34 *8:20 *116:8 0
35 *8:20 *116:10 0
36 *8:20 *120:25 0.000502289
37 *8:32 *394:B 0
38 *8:32 *451:D 0.000112812
39 *8:32 *24:12 0
40 *8:32 *117:35 0
41 *8:59 *470:A 0
42 *8:59 *17:12 4.79124e-05
43 *8:59 *77:15 0
44 *8:59 *79:46 0
45 *8:59 *79:53 0
46 *8:59 *119:26 9.69791e-05
47 *3:6 *8:12 0
*RES
1 *388:Y *8:10 41.7201 
2 *8:10 *8:12 10.2382 
3 *8:12 *8:14 4.5526 
4 *8:14 *8:20 24.6247 
5 *8:20 *8:32 44.5526 
6 *8:32 *391:A 20 
7 *8:20 *394:A 20 
8 *8:14 *459:D 46.8907 
9 *8:12 *8:59 22.0497 
10 *8:59 *406:A 22.266 
11 *8:59 *401:A 20 
*END

*D_NET *9 0.00139516
*CONN
*I *467:D I *D sg13cmos5l_dfrbpq_1
*I *381:Y O *D sg13cmos5l_nor2_1
*CAP
1 *467:D 0.000137223
2 *381:Y 0.000439187
3 *9:8 0.00057641
4 *467:D *422:A2 0.000242341
5 *467:D *119:51 0
6 *9:8 *464:CLK 0
7 *9:8 *35:55 0
8 *9:8 *82:10 0
9 *9:8 *82:30 0
10 *9:8 *109:8 0
*RES
1 *381:Y *9:8 44.0582 
2 *9:8 *467:D 41.6171 
*END

*D_NET *10 0.000396932
*CONN
*I *449:D I *D sg13cmos5l_dfrbpq_1
*I *389:Y O *D sg13cmos5l_inv_1
*CAP
1 *449:D 0.000198466
2 *389:Y 0.000198466
3 *449:D *389:A 0
4 *449:D *394:B 0
*RES
1 *389:Y *449:D 41.7819 
*END

*D_NET *11 0.00022175
*CONN
*I *450:D I *D sg13cmos5l_dfrbpq_1
*I *391:Y O *D sg13cmos5l_nor2_1
*CAP
1 *450:D 0.000110875
2 *391:Y 0.000110875
3 *450:D *24:12 0
*RES
1 *391:Y *450:D 41.133 
*END

*D_NET *12 0.0012218
*CONN
*I *451:D I *D sg13cmos5l_dfrbpq_1
*I *394:Y O *D sg13cmos5l_nor2_1
*CAP
1 *451:D 0.000460606
2 *394:Y 0.000460606
3 *451:D *391:B 0
4 *451:D *394:B 0
5 *451:D *450:RESET_B 7.52632e-05
6 *451:D *451:RESET_B 0
7 *451:D *117:8 0.000112514
8 *8:32 *451:D 0.000112812
*RES
1 *394:Y *451:D 44.5114 
*END

*D_NET *13 0.00020233
*CONN
*I *452:D I *D sg13cmos5l_dfrbpq_1
*I *396:Y O *D sg13cmos5l_xnor2_1
*CAP
1 *452:D 7.72936e-05
2 *396:Y 7.72936e-05
3 *452:D *397:C 4.77425e-05
*RES
1 *396:Y *452:D 40.9167 
*END

*D_NET *14 0.000329134
*CONN
*I *453:D I *D sg13cmos5l_dfrbpq_1
*I *398:X O *D sg13cmos5l_xor2_1
*CAP
1 *453:D 0.000164567
2 *398:X 0.000164567
3 *453:D *398:A 0
4 *453:D *455:RESET_B 0
*RES
1 *398:X *453:D 41.5347 
*END

*D_NET *15 0.00142465
*CONN
*I *454:D I *D sg13cmos5l_dfrbpq_1
*I *401:Y O *D sg13cmos5l_nor2_1
*CAP
1 *454:D 0.000241219
2 *401:Y 0.000358357
3 *15:8 0.000599576
4 *454:D *392:A 0.000112826
5 *454:D *478:A 0
6 *454:D *79:10 0.000112667
7 *454:D *118:56 0
8 *15:8 *119:28 0
9 *15:8 *119:71 0
*RES
1 *401:Y *15:8 44.0582 
2 *15:8 *454:D 42.7192 
*END

*D_NET *16 0.000492777
*CONN
*I *455:D I *D sg13cmos5l_dfrbpq_1
*I *403:Y O *D sg13cmos5l_xnor2_1
*CAP
1 *455:D 0.000157818
2 *403:Y 0.000157818
3 *455:D *455:RESET_B 0
4 *455:D *87:39 0
5 *455:D *89:16 0.000177142
*RES
1 *403:Y *455:D 41.7819 
*END

*D_NET *17 0.00239291
*CONN
*I *456:D I *D sg13cmos5l_dfrbpq_1
*I *406:Y O *D sg13cmos5l_nor2_1
*CAP
1 *456:D 0.00037045
2 *406:Y 0.000632127
3 *17:12 0.00100258
4 *456:D *124:10 0
5 *17:12 *401:B 3.2944e-05
6 *17:12 *406:B 0
7 *17:12 *79:53 0
8 *17:12 *88:8 0
9 *17:12 *90:10 0
10 *406:A *17:12 0.000306903
11 *8:14 *456:D 0
12 *8:59 *17:12 4.79124e-05
*RES
1 *406:Y *17:12 45.2875 
2 *17:12 *456:D 44.3054 
*END

*D_NET *18 0.000865539
*CONN
*I *457:D I *D sg13cmos5l_dfrbpq_1
*I *409:Y O *D sg13cmos5l_xnor2_1
*CAP
1 *457:D 0.000179644
2 *409:Y 0.000253126
3 *18:8 0.000432769
4 *457:D *457:RESET_B 0
5 *18:8 *119:79 0
*RES
1 *409:Y *18:8 43.0694 
2 *18:8 *457:D 41.6171 
*END

*D_NET *19 0.000280566
*CONN
*I *458:D I *D sg13cmos5l_dfrbpq_1
*I *412:X O *D sg13cmos5l_mux2_1
*CAP
1 *458:D 0.000103989
2 *412:X 0.000103989
3 *458:D *410:A 1.54285e-05
4 *458:D *412:A0 5.71586e-05
*RES
1 *412:X *458:D 41.236 
*END

*D_NET *20 0.00086833
*CONN
*I *460:D I *D sg13cmos5l_dfrbpq_1
*I *416:Y O *D sg13cmos5l_nor2_1
*CAP
1 *460:D 6.26207e-05
2 *416:Y 0.000371545
3 *20:10 0.000434165
4 *20:10 *115:117 0
*RES
1 *416:Y *20:10 43.2033 
2 *20:10 *460:D 40.5356 
*END

*D_NET *21 0.000133739
*CONN
*I *461:D I *D sg13cmos5l_dfrbpq_1
*I *417:X O *D sg13cmos5l_xor2_1
*CAP
1 *461:D 6.68694e-05
2 *417:X 6.68694e-05
*RES
1 *417:X *461:D 40.8446 
*END

*D_NET *22 0.00160978
*CONN
*I *495:A I *D sg13cmos5l_dlygate4sd3_1
*I *421:Y O *D sg13cmos5l_nor2_1
*CAP
1 *495:A 0
2 *421:Y 0.000381373
3 *22:10 0.000381373
4 *22:10 *421:A 0.00011159
5 *22:10 *110:10 0.000234311
6 *22:10 *110:16 0.000501131
7 *22:10 *114:30 0
8 *22:10 *114:63 0
*RES
1 *421:Y *22:10 44.7174 
2 *22:10 *495:A 40 
*END

*D_NET *23 0.00203898
*CONN
*I *483:A I *D sg13cmos5l_dlygate4sd3_1
*I *425:Y O *D sg13cmos5l_nor3_1
*CAP
1 *483:A 0
2 *425:Y 0.000171993
3 *23:8 0.000171993
4 *23:8 *97:8 0.000820983
5 *23:8 *113:20 0.000874015
6 *23:8 *115:91 0
*RES
1 *425:Y *23:8 44.0582 
2 *23:8 *483:A 40 
*END

*D_NET *24 0.00236879
*CONN
*I *486:A I *D sg13cmos5l_dlygate4sd3_1
*I *431:Y O *D sg13cmos5l_nor3_1
*CAP
1 *486:A 0
2 *431:Y 0.00102338
3 *24:12 0.00102338
4 *24:12 *431:A 0
5 *24:12 *431:B 0
6 *24:12 *464:D 0.000241941
7 *24:12 *465:CLK 8.00842e-05
8 *24:12 *119:51 0
9 *450:D *24:12 0
10 *8:20 *24:12 0
11 *8:32 *24:12 0
*RES
1 *431:Y *24:12 30.0528 
2 *24:12 *486:A 20 
*END

*D_NET *25 0.00237982
*CONN
*I *491:A I *D sg13cmos5l_dlygate4sd3_1
*I *436:Y O *D sg13cmos5l_a221oi_1
*CAP
1 *491:A 0
2 *436:Y 0.000733535
3 *25:10 0.000733535
4 *25:10 *429:A 0
5 *25:10 *436:C1 0.000144025
6 *25:10 *436:A2 0.000448186
7 *25:10 *490:A 0.00027301
8 *25:10 *73:29 0
9 *25:10 *99:8 4.7526e-05
10 *25:10 *116:10 0
*RES
1 *436:Y *25:10 47.1585 
2 *25:10 *491:A 40 
*END

*D_NET *26 0.00134925
*CONN
*I *488:A I *D sg13cmos5l_dlygate4sd3_1
*I *441:Y O *D sg13cmos5l_o21ai_1
*CAP
1 *488:A 0.000417262
2 *441:Y 0.000417262
3 *488:A *439:A 0.000241089
4 *488:A *440:A2 0
5 *488:A *441:A2 0
6 *488:A *32:10 0
7 *488:A *58:27 0
8 *488:A *102:22 0.000273639
9 *488:A *115:12 0
*RES
1 *441:Y *488:A 44.7586 
*END

*D_NET *27 0.00052907
*CONN
*I *445:RESET_B I *D sg13cmos5l_dfrbpq_1
*I *443:Y O *D sg13cmos5l_a21oi_1
*CAP
1 *445:RESET_B 0
2 *443:Y 0.000264535
3 *27:10 0.000264535
4 *27:10 *445:CLK 0
5 *27:10 *498:A 0
6 *27:10 *75:10 0
7 *27:10 *113:6 0
*RES
1 *443:Y *27:10 42.7398 
2 *27:10 *445:RESET_B 40 
*END

*D_NET *28 0.00216556
*CONN
*I *447:RESET_B I *D sg13cmos5l_dfrbpq_1
*I *444:Y O *D sg13cmos5l_a21oi_1
*CAP
1 *447:RESET_B 0.000360577
2 *444:Y 0.000216778
3 *28:8 0.000577355
4 *447:RESET_B *442:A 0
5 *447:RESET_B *447:D 0
6 *447:RESET_B *464:CLK 0
7 *447:RESET_B *76:10 0.000242483
8 *447:RESET_B *105:10 0
9 *28:8 *113:20 0.000768367
*RES
1 *444:Y *28:8 43.5638 
2 *28:8 *447:RESET_B 43.5638 
*END

*D_NET *29 0.00038075
*CONN
*I *441:A2 I *D sg13cmos5l_o21ai_1
*I *437:Y O *D sg13cmos5l_a21oi_1
*CAP
1 *441:A2 0.000182647
2 *437:Y 0.000182647
3 *441:A2 *441:A1 0
4 *441:A2 *58:27 0
5 *441:A2 *115:12 1.54556e-05
6 *441:A2 *115:25 0
7 *488:A *441:A2 0
*RES
1 *437:Y *441:A2 41.751 
*END

*D_NET *30 0.00116162
*CONN
*I *439:A I *D sg13cmos5l_nor3_1
*I *438:Y O *D sg13cmos5l_inv_1
*CAP
1 *439:A 0.000159495
2 *438:Y 0.000300768
3 *30:8 0.000460263
4 *439:A *440:A2 0
5 *439:A *102:22 0
6 *30:8 *103:8 0
7 *488:A *439:A 0.000241089
8 *4:10 *30:8 0
*RES
1 *438:Y *30:8 42.8222 
2 *30:8 *439:A 41.6171 
*END

*D_NET *31 0.000522888
*CONN
*I *440:A2 I *D sg13cmos5l_o21ai_1
*I *439:Y O *D sg13cmos5l_nor3_1
*CAP
1 *440:A2 0.000253744
2 *439:Y 0.000253744
3 *440:A2 *440:A1 1.54008e-05
4 *440:A2 *32:10 0
5 *440:A2 *102:22 0
6 *439:A *440:A2 0
7 *488:A *440:A2 0
*RES
1 *439:Y *440:A2 42.4308 
*END

*D_NET *32 0.00120447
*CONN
*I *441:B1 I *D sg13cmos5l_o21ai_1
*I *440:Y O *D sg13cmos5l_o21ai_1
*CAP
1 *441:B1 0
2 *440:Y 0.000602235
3 *32:10 0.000602235
4 *32:10 *58:33 0
5 *32:10 *102:22 0
6 *440:A2 *32:10 0
7 *488:A *32:10 0
*RES
1 *440:Y *32:10 46.5714 
2 *32:10 *441:B1 40 
*END

*D_NET *33 0.000497854
*CONN
*I *443:B1 I *D sg13cmos5l_a21oi_1
*I *444:B1 I *D sg13cmos5l_a21oi_1
*I *442:Y O *D sg13cmos5l_inv_1
*CAP
1 *443:B1 0.000201629
2 *444:B1 0
3 *442:Y 4.72978e-05
4 *33:6 0.000248927
*RES
1 *442:Y *33:6 20.5974 
2 *33:6 *444:B1 20 
3 *33:6 *443:B1 22.5132 
*END

*D_NET *34 0.0104042
*CONN
*I *426:B I *D sg13cmos5l_nand3_1
*I *380:C I *D sg13cmos5l_nand4_1
*I *432:B I *D sg13cmos5l_nand3_1
*I *440:A1 I *D sg13cmos5l_o21ai_1
*I *378:Y O *D sg13cmos5l_nor2b_1
*CAP
1 *426:B 0.000446779
2 *380:C 0
3 *432:B 0.000435267
4 *440:A1 0.000385729
5 *378:Y 0
6 *34:34 0.00201856
7 *34:19 0.00236601
8 *34:6 0.000744696
9 *426:B *380:D 4.77425e-05
10 *426:B *426:C 0.000209736
11 *426:B *426:A 0
12 *426:B *66:8 0.00030692
13 *432:B *432:C 8.00842e-05
14 *432:B *432:A 0
15 *432:B *35:10 8.00842e-05
16 *432:B *35:12 0.000466278
17 *432:B *68:10 0.000466388
18 *440:A1 *415:B 0
19 *440:A1 *415:C 0.000181608
20 *440:A1 *58:10 0.000128248
21 *440:A1 *59:8 0
22 *440:A1 *60:10 0
23 *440:A1 *110:16 0
24 *440:A1 *114:38 9.72114e-05
25 *440:A1 *114:46 0.00027466
26 *34:19 *58:10 0.00106346
27 *34:19 *67:10 0
28 *34:19 *110:16 0
29 *34:34 *380:D 1.54008e-05
30 *34:34 *58:10 0.000106064
31 *34:34 *66:8 0
32 *34:34 *66:12 0
33 *34:34 *67:10 0
34 *34:34 *104:14 0.000467875
35 *34:34 *108:14 0
36 *440:A2 *440:A1 1.54008e-05
*RES
1 *378:Y *34:6 40 
2 *34:6 *440:A1 44.8101 
3 *34:6 *34:19 5.047 
4 *34:19 *432:B 44.6453 
5 *34:19 *34:34 34.5745 
6 *34:34 *380:C 20 
7 *34:34 *426:B 24.7998 
*END

*D_NET *35 0.0102186
*CONN
*I *428:B I *D sg13cmos5l_and2_1
*I *380:D I *D sg13cmos5l_nand4_1
*I *426:C I *D sg13cmos5l_nand3_1
*I *424:C I *D sg13cmos5l_and3_1
*I *430:A2 I *D sg13cmos5l_a21oi_1
*I *432:C I *D sg13cmos5l_nand3_1
*I *379:X O *D sg13cmos5l_and2_1
*CAP
1 *428:B 0
2 *380:D 8.11512e-05
3 *426:C 0.000419625
4 *424:C 0
5 *430:A2 0
6 *432:C 4.37077e-05
7 *379:X 0.000573052
8 *35:55 0.00173705
9 *35:40 0.00174515
10 *35:27 9.64269e-05
11 *35:12 0.00041483
12 *35:10 0.00082839
13 *35:8 0.000617876
14 *380:D *66:8 4.77425e-05
15 *380:D *109:8 0.000106064
16 *426:C *82:8 0
17 *426:C *119:51 0
18 *432:C *117:52 8.00842e-05
19 *35:8 *414:B 0
20 *35:8 *414:A 0
21 *35:8 *414:D 0
22 *35:8 *419:C 0
23 *35:8 *58:10 0
24 *35:8 *117:52 0
25 *35:8 *117:63 0.000596406
26 *35:10 *117:63 0
27 *35:12 *428:A 7.92329e-05
28 *35:12 *117:52 0.000258238
29 *35:12 *117:63 0
30 *35:27 *430:A1 8.01612e-05
31 *35:27 *112:8 0.00012816
32 *35:27 *117:52 8.00842e-05
33 *35:40 *424:B 8.0216e-05
34 *35:40 *66:12 0
35 *35:40 *102:8 0.000234726
36 *35:40 *104:52 0
37 *35:40 *124:12 0
38 *35:55 *422:A1 0
39 *35:55 *424:B 1.54008e-05
40 *35:55 *494:A 0.000305783
41 *35:55 *36:14 0
42 *35:55 *65:12 0.000434566
43 *35:55 *72:12 0
44 *35:55 *82:10 0
45 *35:55 *96:10 0
46 *35:55 *104:22 0
47 *35:55 *104:52 0
48 *35:55 *109:8 0.000235141
49 *35:55 *117:71 0
50 *426:B *380:D 4.77425e-05
51 *426:B *426:C 0.000209736
52 *432:B *432:C 8.00842e-05
53 *432:B *35:10 8.00842e-05
54 *432:B *35:12 0.000466278
55 *9:8 *35:55 0
56 *34:34 *380:D 1.54008e-05
*RES
1 *379:X *35:8 25.8607 
2 *35:8 *35:10 0.5356 
3 *35:10 *35:12 3.1312 
4 *35:12 *432:C 20.5356 
5 *35:12 *35:27 41.133 
6 *35:27 *430:A2 20 
7 *35:10 *35:40 44.3466 
8 *35:40 *424:C 20 
9 *35:40 *35:55 32.4321 
10 *35:55 *426:C 43.7801 
11 *35:55 *380:D 40.9167 
12 *35:8 *428:B 20 
*END

*D_NET *36 0.00867258
*CONN
*I *493:A I *D sg13cmos5l_dlygate4sd3_1
*I *422:A2 I *D sg13cmos5l_a21oi_1
*I *418:A2 I *D sg13cmos5l_a21oi_1
*I *380:Y O *D sg13cmos5l_nand4_1
*CAP
1 *493:A 5.14085e-05
2 *422:A2 0.000448968
3 *418:A2 0
4 *380:Y 0.000109401
5 *36:23 0.000556588
6 *36:14 0.00108622
7 *36:8 0.00125183
8 *422:A2 *422:A1 5.16069e-05
9 *422:A2 *422:B1 0
10 *422:A2 *481:A 0.000226808
11 *422:A2 *78:45 0
12 *422:A2 *119:51 0
13 *36:8 *381:A 0.000590066
14 *36:8 *104:22 0.000609193
15 *36:14 *381:A 0.000290996
16 *36:14 *420:A2 0.000209033
17 *36:14 *61:10 0
18 *36:14 *96:10 0
19 *36:14 *96:14 0
20 *36:14 *104:22 0.000394814
21 *36:14 *110:16 1.54449e-05
22 *36:14 *114:30 0.000606376
23 *36:14 *114:63 0.00141207
24 *36:14 *114:74 0.000504027
25 *36:14 *115:76 0
26 *36:14 *117:71 0
27 *36:23 *481:A 1.54008e-05
28 *467:D *422:A2 0.000242341
29 *35:55 *36:14 0
*RES
1 *380:Y *36:8 42.8222 
2 *36:8 *36:14 34.111 
3 *36:14 *418:A2 20 
4 *36:8 *36:23 20.5356 
5 *36:23 *422:A2 24.6324 
6 *36:23 *493:A 20.5974 
*END

*D_NET *37 0.00076447
*CONN
*I *388:B I *D sg13cmos5l_nor3_1
*I *382:Y O *D sg13cmos5l_inv_1
*CAP
1 *388:B 0
2 *382:Y 0.000237776
3 *37:8 0.000237776
4 *37:8 *54:25 0
5 *37:8 *92:27 0.000288917
6 *3:6 *37:8 0
*RES
1 *382:Y *37:8 43.0694 
2 *37:8 *388:B 40 
*END

*D_NET *38 0.000433721
*CONN
*I *387:A I *D sg13cmos5l_nand4_1
*I *383:Y O *D sg13cmos5l_nor2b_1
*CAP
1 *387:A 0.000144895
2 *383:Y 0.000144895
3 *387:A *387:B 0.000143932
4 *387:A *398:A 0
5 *387:A *42:16 0
*RES
1 *383:Y *387:A 41.5656 
*END

*D_NET *39 0.00105925
*CONN
*I *387:B I *D sg13cmos5l_nand4_1
*I *384:Y O *D sg13cmos5l_nor2b_1
*CAP
1 *387:B 0.000120329
2 *384:Y 0.000337328
3 *39:8 0.000457657
4 *387:B *47:12 0
5 *39:8 *383:B_N 0
6 *387:A *387:B 0.000143932
*RES
1 *384:Y *39:8 42.8222 
2 *39:8 *387:B 41.1845 
*END

*D_NET *40 0.00247236
*CONN
*I *387:C I *D sg13cmos5l_nand4_1
*I *385:Y O *D sg13cmos5l_nor2b_1
*CAP
1 *387:C 8.36653e-05
2 *385:Y 0.000522779
3 *40:12 0.000606444
4 *387:C *387:D 0
5 *387:C *404:D 4.77425e-05
6 *40:12 *408:D 0
7 *40:12 *47:12 7.51285e-05
8 *40:12 *47:27 0.000500629
9 *40:12 *47:42 7.52158e-05
10 *40:12 *48:8 0
11 *40:12 *54:10 0
12 *40:12 *89:16 0
13 *40:12 *89:18 6.46834e-05
14 *40:12 *89:28 0.000496068
*RES
1 *385:Y *40:12 46.3345 
2 *40:12 *387:C 40.7519 
*END

*D_NET *41 0.000493446
*CONN
*I *387:D I *D sg13cmos5l_nand4_1
*I *386:Y O *D sg13cmos5l_nor2b_1
*CAP
1 *387:D 0.000206681
2 *386:Y 0.000206681
3 *387:D *404:D 0
4 *387:D *47:12 8.00842e-05
5 *387:C *387:D 0
*RES
1 *386:Y *387:D 41.9673 
*END

*D_NET *42 0.00331405
*CONN
*I *410:B I *D sg13cmos5l_and2_1
*I *388:C I *D sg13cmos5l_nor3_1
*I *387:Y O *D sg13cmos5l_nand4_1
*CAP
1 *410:B 0
2 *388:C 0
3 *387:Y 0.000674288
4 *42:29 0.000698319
5 *42:16 0.00137261
6 *42:16 *388:A 0
7 *42:16 *404:D 0
8 *42:16 *405:B 0.000231549
9 *42:16 *408:B 0.000241716
10 *42:16 *54:10 0
11 *42:16 *89:28 4.77201e-05
12 *42:29 *388:A 0
13 *42:29 *54:25 0
14 *42:29 *81:33 0
15 *42:29 *91:8 0
16 *42:29 *91:12 0
17 *42:29 *91:34 0
18 *387:A *42:16 0
19 *468:A *42:16 0
20 *8:10 *42:16 4.78521e-05
*RES
1 *387:Y *42:16 27.2615 
2 *42:16 *388:C 20 
3 *42:16 *42:29 47.0658 
4 *42:29 *410:B 20 
*END

*D_NET *43 0.00131732
*CONN
*I *391:B I *D sg13cmos5l_nor2_1
*I *390:Y O *D sg13cmos5l_xnor2_1
*CAP
1 *391:B 0.000451006
2 *390:Y 0.000207653
3 *43:8 0.00065866
4 *391:B *451:RESET_B 0
5 *451:D *391:B 0
*RES
1 *390:Y *43:8 41.8334 
2 *43:8 *391:B 44.429 
*END

*D_NET *44 0.00262512
*CONN
*I *393:B I *D sg13cmos5l_xor2_1
*I *392:Y O *D sg13cmos5l_nand2_1
*CAP
1 *393:B 0.000707656
2 *392:Y 0.000707656
3 *393:B *389:A 0
4 *393:B *392:A 0.000759125
5 *393:B *392:B 0
6 *393:B *393:A 0
7 *393:B *394:B 0
8 *393:B *449:RESET_B 0.000112399
9 *393:B *451:CLK 0.000338289
*RES
1 *392:Y *393:B 47.2409 
*END

*D_NET *45 0.00207571
*CONN
*I *394:B I *D sg13cmos5l_nor2_1
*I *393:X O *D sg13cmos5l_xor2_1
*CAP
1 *394:B 0.00100617
2 *393:X 0.00100617
3 *394:B *390:B 0
4 *394:B *392:B 0
5 *394:B *450:CLK 0
6 *394:B *451:RESET_B 0
7 *394:B *451:CLK 1.54556e-05
8 *394:B *478:A 4.79124e-05
9 *394:B *117:8 0
10 *393:B *394:B 0
11 *449:D *394:B 0
12 *451:D *394:B 0
13 *8:20 *394:B 0
14 *8:32 *394:B 0
*RES
1 *393:X *394:B 49.4622 
*END

*D_NET *46 0.00100387
*CONN
*I *396:B I *D sg13cmos5l_xnor2_1
*I *395:Y O *D sg13cmos5l_nand3_1
*CAP
1 *396:B 0.000389841
2 *395:Y 0.000389841
3 *396:B *395:B 0
4 *396:B *396:A 1.54008e-05
5 *396:B *397:A 0.000208791
6 *396:B *397:B 0
7 *396:B *397:C 0
8 *396:B *83:47 0
9 *396:B *84:40 0
*RES
1 *395:Y *396:B 43.5638 
*END

*D_NET *47 0.00503366
*CONN
*I *399:B I *D sg13cmos5l_and2_1
*I *398:B I *D sg13cmos5l_xor2_1
*I *408:C I *D sg13cmos5l_nand4_1
*I *404:D I *D sg13cmos5l_nand4_1
*I *397:X O *D sg13cmos5l_and4_2
*CAP
1 *399:B 0.000469195
2 *398:B 4.53083e-05
3 *408:C 0.000178661
4 *404:D 0.000236951
5 *397:X 0.000373496
6 *47:42 0.000644207
7 *47:27 0.000514835
8 *47:12 0.000816917
9 *399:B *402:B 0.000160322
10 *399:B *455:RESET_B 0
11 *399:B *50:8 0.000447597
12 *399:B *87:29 0
13 *404:D *386:B_N 0
14 *404:D *89:46 1.54008e-05
15 *408:C *398:A 8.00842e-05
16 *408:C *408:B 4.77425e-05
17 *408:C *408:D 9.5485e-05
18 *47:12 *397:A 0
19 *47:12 *83:58 0
20 *47:42 *50:8 0.000128662
21 *47:42 *53:8 0
22 *47:42 *89:28 0
23 *387:B *47:12 0
24 *387:C *404:D 4.77425e-05
25 *387:D *404:D 0
26 *387:D *47:12 8.00842e-05
27 *40:12 *47:12 7.51285e-05
28 *40:12 *47:27 0.000500629
29 *40:12 *47:42 7.52158e-05
30 *42:16 *404:D 0
*RES
1 *397:X *47:12 43.5226 
2 *47:12 *404:D 42.2866 
3 *47:12 *47:27 2.3278 
4 *47:27 *408:C 42.1012 
5 *47:27 *47:42 1.339 
6 *47:42 *398:B 40.4476 
7 *47:42 *399:B 44.8616 
*END

*D_NET *48 0.00366712
*CONN
*I *402:B I *D sg13cmos5l_nand2_1
*I *400:B I *D sg13cmos5l_xnor2_1
*I *399:X O *D sg13cmos5l_and2_1
*CAP
1 *402:B 0.000272841
2 *400:B 5.05397e-05
3 *399:X 0
4 *48:8 0.00124899
5 *48:4 0.00147129
6 *400:B *400:A 1.54556e-05
7 *400:B *406:B 0
8 *402:B *455:RESET_B 0
9 *402:B *88:55 0
10 *48:8 *386:A 0
11 *48:8 *400:A 0
12 *48:8 *50:8 0
13 *48:8 *53:8 0.000447684
14 *48:8 *87:39 0
15 *48:8 *88:21 0
16 *48:8 *88:32 0
17 *399:B *402:B 0.000160322
18 *40:12 *48:8 0
*RES
1 *399:X *48:4 20 
2 *48:4 *48:8 31.9686 
3 *48:8 *400:B 40.5356 
4 *48:4 *402:B 22.6368 
*END

*D_NET *49 0.00020114
*CONN
*I *401:B I *D sg13cmos5l_nor2_1
*I *400:Y O *D sg13cmos5l_xnor2_1
*CAP
1 *401:B 8.40982e-05
2 *400:Y 8.40982e-05
3 *401:B *406:B 0
4 *17:12 *401:B 3.2944e-05
*RES
1 *400:Y *401:B 40.8652 
*END

*D_NET *50 0.00151151
*CONN
*I *403:B I *D sg13cmos5l_xnor2_1
*I *402:Y O *D sg13cmos5l_nand2_1
*CAP
1 *403:B 0.000166275
2 *402:Y 0.000189244
3 *50:8 0.000355518
4 *403:B *455:RESET_B 0
5 *403:B *88:55 0
6 *403:B *89:18 1.54008e-05
7 *403:B *89:28 0.000208813
8 *50:8 *53:8 0
9 *50:8 *88:55 0
10 *399:B *50:8 0.000447597
11 *47:42 *50:8 0.000128662
12 *48:8 *50:8 0
*RES
1 *402:Y *50:8 42.575 
2 *50:8 *403:B 41.6171 
*END

*D_NET *51 0.000620752
*CONN
*I *405:B I *D sg13cmos5l_xor2_1
*I *404:Y O *D sg13cmos5l_nand4_1
*CAP
1 *405:B 0.000154988
2 *404:Y 0.000154988
3 *405:B *52:10 7.92265e-05
4 *42:16 *405:B 0.000231549
*RES
1 *404:Y *405:B 41.751 
*END

*D_NET *52 0.00383196
*CONN
*I *406:B I *D sg13cmos5l_nor2_1
*I *405:X O *D sg13cmos5l_xor2_1
*CAP
1 *406:B 0.000421875
2 *405:X 0.000881965
3 *52:10 0.00130384
4 *406:B *400:A 0
5 *406:B *88:8 0
6 *52:10 *77:15 0
7 *52:10 *77:31 0
8 *52:10 *88:21 0
9 *52:10 *88:32 0
10 *52:10 *119:71 0.00114505
11 *400:B *406:B 0
12 *401:B *406:B 0
13 *405:B *52:10 7.92265e-05
14 *17:12 *406:B 0
*RES
1 *405:X *52:10 48.7962 
2 *52:10 *406:B 44.1818 
*END

*D_NET *53 0.00132449
*CONN
*I *408:D I *D sg13cmos5l_nand4_1
*I *407:X O *D sg13cmos5l_and2_1
*CAP
1 *408:D 0.0001737
2 *407:X 0.00014493
3 *53:8 0.00031863
4 *408:D *54:10 0.000144063
5 *408:C *408:D 9.5485e-05
6 *40:12 *408:D 0
7 *47:42 *53:8 0
8 *48:8 *53:8 0.000447684
9 *50:8 *53:8 0
*RES
1 *407:X *53:8 42.0806 
2 *53:8 *408:D 41.6171 
*END

*D_NET *54 0.0033978
*CONN
*I *409:B I *D sg13cmos5l_xnor2_1
*I *411:B I *D sg13cmos5l_xnor2_1
*I *408:Y O *D sg13cmos5l_nand4_1
*CAP
1 *409:B 0
2 *411:B 0
3 *408:Y 0.000616067
4 *54:25 0.000393557
5 *54:10 0.00100962
6 *54:10 *408:B 0.000499745
7 *54:10 *89:12 0
8 *54:10 *92:27 1.54008e-05
9 *54:25 *388:A 0
10 *54:25 *412:A1 0
11 *54:25 *457:RESET_B 0
12 *54:25 *91:34 1.54556e-05
13 *54:25 *92:12 0
14 *54:25 *92:27 4.7803e-05
15 *54:25 *119:71 0
16 *54:25 *119:79 0.000608233
17 *408:D *54:10 0.000144063
18 *3:6 *54:25 0
19 *8:10 *54:10 4.78521e-05
20 *37:8 *54:25 0
21 *40:12 *54:10 0
22 *42:16 *54:10 0
23 *42:29 *54:25 0
*RES
1 *408:Y *54:10 26.7053 
2 *54:10 *411:B 20 
3 *54:10 *54:25 44.6618 
4 *54:25 *409:B 20 
*END

*D_NET *55 0.000596646
*CONN
*I *412:A0 I *D sg13cmos5l_mux2_1
*I *410:X O *D sg13cmos5l_and2_1
*CAP
1 *412:A0 0.000269744
2 *410:X 0.000269744
3 *412:A0 *410:A 0
4 *412:A0 *412:A1 0
5 *412:A0 *91:12 0
6 *458:D *412:A0 5.71586e-05
*RES
1 *410:X *412:A0 42.9149 
*END

*D_NET *56 0.000410753
*CONN
*I *412:A1 I *D sg13cmos5l_mux2_1
*I *411:Y O *D sg13cmos5l_xnor2_1
*CAP
1 *412:A1 0.000205376
2 *411:Y 0.000205376
3 *412:A1 *388:A 0
4 *412:A1 *410:A 0
5 *412:A1 *92:12 0
6 *412:A0 *412:A1 0
7 *54:25 *412:A1 0
*RES
1 *411:Y *412:A1 41.8849 
*END

*D_NET *57 0.00352212
*CONN
*I *441:A1 I *D sg13cmos5l_o21ai_1
*I *415:B I *D sg13cmos5l_nor3_1
*I *413:Y O *D sg13cmos5l_inv_1
*CAP
1 *441:A1 0.000996757
2 *415:B 0.000191831
3 *413:Y 0.000113593
4 *57:8 0.00130218
5 *415:B *59:8 0
6 *415:B *102:12 0.000234224
7 *441:A1 *115:12 8.00842e-05
8 *441:A1 *115:25 0.000112689
9 *441:A1 *115:40 0.000209374
10 *441:A1 *115:59 1.54008e-05
11 *57:8 *58:10 0
12 *57:8 *102:12 0.00026599
13 *440:A1 *415:B 0
14 *441:A2 *441:A1 0
*RES
1 *413:Y *57:8 41.339 
2 *57:8 *415:B 41.8334 
3 *57:8 *441:A1 46.077 
*END

*D_NET *58 0.00507636
*CONN
*I *437:B1 I *D sg13cmos5l_a21oi_1
*I *439:C I *D sg13cmos5l_nor3_1
*I *415:C I *D sg13cmos5l_nor3_1
*I *414:Y O *D sg13cmos5l_nand4_1
*CAP
1 *437:B1 0
2 *439:C 0
3 *415:C 0.000123776
4 *414:Y 0.000642254
5 *58:33 0.000137006
6 *58:27 0.000576859
7 *58:10 0.00120588
8 *415:C *114:38 0
9 *415:C *114:46 0
10 *58:10 *66:12 0
11 *58:10 *104:52 0
12 *58:27 *378:B_N 4.77425e-05
13 *58:27 *102:22 0.000500271
14 *58:27 *115:12 0
15 *58:27 *115:25 0.00030621
16 *58:27 *115:40 0
17 *58:27 *115:59 5.6983e-05
18 *440:A1 *415:C 0.000181608
19 *440:A1 *58:10 0.000128248
20 *441:A2 *58:27 0
21 *488:A *58:27 0
22 *4:10 *58:33 0
23 *32:10 *58:33 0
24 *34:19 *58:10 0.00106346
25 *34:34 *58:10 0.000106064
26 *35:8 *58:10 0
27 *57:8 *58:10 0
*RES
1 *414:Y *58:10 46.4811 
2 *58:10 *415:C 41.3802 
3 *58:10 *58:27 24.7792 
4 *58:27 *58:33 41.339 
5 *58:33 *439:C 20 
6 *58:27 *437:B1 20 
*END

*D_NET *59 0.00256526
*CONN
*I *416:B I *D sg13cmos5l_nor2_1
*I *415:Y O *D sg13cmos5l_nor3_1
*CAP
1 *416:B 0.000770638
2 *415:Y 0.000248795
3 *59:8 0.00101943
4 *416:B *416:A 0
5 *416:B *115:102 8.00425e-05
6 *59:8 *102:12 0.000446352
7 *415:B *59:8 0
8 *440:A1 *59:8 0
*RES
1 *415:Y *59:8 43.0694 
2 *59:8 *416:B 46.2006 
*END

*D_NET *60 0.000998418
*CONN
*I *421:A I *D sg13cmos5l_nor2_1
*I *418:Y O *D sg13cmos5l_a21oi_1
*CAP
1 *421:A 0.000157543
2 *418:Y 0.000238022
3 *60:10 0.000395564
4 *60:10 *420:A2 4.77863e-05
5 *60:10 *110:16 0
6 *60:10 *114:30 4.79124e-05
7 *440:A1 *60:10 0
8 *22:10 *421:A 0.00011159
*RES
1 *418:Y *60:10 42.1527 
2 *60:10 *421:A 41.1845 
*END

*D_NET *61 0.00202642
*CONN
*I *420:B1 I *D sg13cmos5l_o21ai_1
*I *419:Y O *D sg13cmos5l_nand3_1
*CAP
1 *420:B1 0
2 *419:Y 0.000499491
3 *61:10 0.000499491
4 *61:10 *419:A 0
5 *61:10 *115:59 0.00012816
6 *61:10 *115:76 0.000899282
7 *36:14 *61:10 0
*RES
1 *419:Y *61:10 45.4281 
2 *61:10 *420:B1 40 
*END

*D_NET *62 0.00121755
*CONN
*I *421:B I *D sg13cmos5l_nor2_1
*I *420:Y O *D sg13cmos5l_o21ai_1
*CAP
1 *421:B 7.7768e-05
2 *420:Y 0.000219251
3 *62:10 0.000297019
4 *62:10 *420:A2 0
5 *62:10 *115:59 0.000229362
6 *62:10 *115:76 0.000394151
*RES
1 *420:Y *62:10 43.1106 
2 *62:10 *421:B 40.5356 
*END

*D_NET *63 0.00192371
*CONN
*I *425:A I *D sg13cmos5l_nor3_1
*I *422:Y O *D sg13cmos5l_a21oi_1
*CAP
1 *425:A 9.34911e-05
2 *422:Y 0.000670668
3 *63:10 0.000764159
4 *425:A *425:B 0
5 *63:10 *64:8 0
6 *63:10 *113:20 0
7 *7:8 *63:10 0.000395396
*RES
1 *422:Y *63:10 47.3439 
2 *63:10 *425:A 40.9682 
*END

*D_NET *64 0.00185291
*CONN
*I *482:A I *D sg13cmos5l_dlygate4sd3_1
*I *423:Y O *D sg13cmos5l_a21oi_1
*CAP
1 *482:A 5.74303e-05
2 *423:Y 0.000377121
3 *64:8 0.000434551
4 *482:A *422:B1 0
5 *64:8 *113:20 0.000983812
6 *63:10 *64:8 0
*RES
1 *423:Y *64:8 44.5526 
2 *64:8 *482:A 40.5356 
*END

*D_NET *65 0.00322945
*CONN
*I *425:C I *D sg13cmos5l_nor3_1
*I *424:X O *D sg13cmos5l_and3_1
*CAP
1 *425:C 0
2 *424:X 0.000905866
3 *65:12 0.000905866
4 *65:12 *379:A 0.000112667
5 *65:12 *379:B 0
6 *65:12 *414:A 0.000371779
7 *65:12 *423:A2 0.000112426
8 *65:12 *423:B1 0
9 *65:12 *462:CLK 0
10 *65:12 *463:D 8.02485e-05
11 *65:12 *104:52 0.000306035
12 *35:55 *65:12 0.000434566
*RES
1 *424:X *65:12 30.2691 
2 *65:12 *425:C 20 
*END

*D_NET *66 0.00501021
*CONN
*I *427:A2 I *D sg13cmos5l_a21oi_1
*I *426:Y O *D sg13cmos5l_nand3_1
*CAP
1 *427:A2 0
2 *426:Y 0.000778124
3 *66:12 0.00135253
4 *66:8 0.00213066
5 *66:8 *381:A 0
6 *66:8 *426:A 0
7 *66:8 *104:14 0
8 *66:12 *78:17 0
9 *66:12 *102:8 0.000394237
10 *66:12 *124:12 0
11 *380:D *66:8 4.77425e-05
12 *426:B *66:8 0.00030692
13 *34:34 *66:8 0
14 *34:34 *66:12 0
15 *35:40 *66:12 0
16 *58:10 *66:12 0
*RES
1 *426:Y *66:8 47.4572 
2 *66:8 *66:12 32.7102 
3 *66:12 *427:A2 20 
*END

*D_NET *67 0.00260471
*CONN
*I *485:A I *D sg13cmos5l_dlygate4sd3_1
*I *427:Y O *D sg13cmos5l_a21oi_1
*CAP
1 *485:A 0.000116829
2 *427:Y 0.00111402
3 *67:10 0.00123084
4 *485:A *431:A 0
5 *485:A *436:A2 4.7381e-05
6 *67:10 *427:A1 4.78195e-05
7 *67:10 *427:B1 4.78195e-05
8 *67:10 *72:18 0
9 *67:10 *108:14 0
10 *67:10 *110:10 0
11 *67:10 *110:16 0
12 *67:10 *114:22 0
13 *67:10 *117:63 0
14 *34:19 *67:10 0
15 *34:34 *67:10 0
*RES
1 *427:Y *67:10 49.9086 
2 *67:10 *485:A 41.1845 
*END

*D_NET *68 0.00764015
*CONN
*I *429:C I *D sg13cmos5l_and3_1
*I *435:A2 I *D sg13cmos5l_a21oi_1
*I *428:X O *D sg13cmos5l_and2_1
*CAP
1 *429:C 0.000990296
2 *435:A2 5.08741e-05
3 *428:X 0.000735243
4 *68:18 0.000464844
5 *68:10 0.00213951
6 *429:C *429:B 8.0216e-05
7 *429:C *464:RESET_B 0
8 *429:C *116:10 0
9 *429:C *120:25 0
10 *429:C *125:6 0
11 *435:A2 *116:33 8.00842e-05
12 *68:10 *432:A 0.000402332
13 *68:10 *73:29 0.000660555
14 *68:10 *112:8 0.000181608
15 *68:18 *490:A 0.000598055
16 *68:18 *116:33 0.00012816
17 *68:18 *120:10 0.000533317
18 *432:B *68:10 0.000466388
19 *4:10 *429:C 0
20 *4:10 *68:10 0
21 *8:20 *429:C 0.000128663
*RES
1 *428:X *68:10 47.931 
2 *68:10 *68:18 44.841 
3 *68:18 *435:A2 40.5356 
4 *68:10 *429:C 48.858 
*END

*D_NET *69 0.00399582
*CONN
*I *431:B I *D sg13cmos5l_nor3_1
*I *436:A2 I *D sg13cmos5l_a221oi_1
*I *429:X O *D sg13cmos5l_and3_1
*CAP
1 *431:B 0.000461489
2 *436:A2 0.000603463
3 *429:X 0.000146514
4 *69:8 0.00121147
5 *431:B *431:A 0
6 *436:A2 *429:A 0.000448186
7 *436:A2 *436:C1 0
8 *436:A2 *436:A1 0
9 *436:A2 *490:A 0
10 *436:A2 *78:8 0
11 *436:A2 *78:17 0
12 *436:A2 *116:10 0
13 *69:8 *429:A 0.000500803
14 *69:8 *116:10 0
15 *69:8 *125:12 0.000128334
16 *469:A *436:A2 0
17 *485:A *436:A2 4.7381e-05
18 *24:12 *431:B 0
19 *25:10 *436:A2 0.000448186
*RES
1 *429:X *69:8 42.3278 
2 *69:8 *436:A2 46.8598 
3 *69:8 *431:B 44.3157 
*END

*D_NET *70 0.00279292
*CONN
*I *431:C I *D sg13cmos5l_nor3_1
*I *430:Y O *D sg13cmos5l_a21oi_1
*CAP
1 *431:C 0
2 *430:Y 0.000160167
3 *70:12 0.00111148
4 *70:8 0.00127165
5 *70:8 *417:A 1.54008e-05
6 *70:8 *460:RESET_B 0
7 *70:8 *475:A 0
8 *70:8 *117:52 0
9 *70:12 *115:117 0.000234224
10 *70:12 *116:33 0
11 *70:12 *117:35 0
12 *70:12 *117:39 0
*RES
1 *430:Y *70:8 41.4008 
2 *70:8 *70:12 30.7326 
3 *70:12 *431:C 20 
*END

*D_NET *71 0.001977
*CONN
*I *433:B I *D sg13cmos5l_nand2_1
*I *432:Y O *D sg13cmos5l_nand3_1
*CAP
1 *433:B 0.000522392
2 *432:Y 0.000217835
3 *71:10 0.000740227
4 *433:B *433:A 0
5 *433:B *434:A 0
6 *433:B *461:RESET_B 8.0216e-05
7 *433:B *104:52 0
8 *71:10 *437:A1 0
9 *71:10 *460:CLK 0
10 *71:10 *117:35 7.51285e-05
11 *71:10 *117:39 0.000341204
12 *71:10 *117:52 0
*RES
1 *432:Y *71:10 42.5853 
2 *71:10 *433:B 44.6453 
*END

*D_NET *72 0.00518148
*CONN
*I *436:B1 I *D sg13cmos5l_a221oi_1
*I *433:Y O *D sg13cmos5l_nand2_1
*CAP
1 *436:B1 0
2 *433:Y 0.000100275
3 *72:18 0.00012502
4 *72:12 0.00128648
5 *72:8 0.00126173
6 *72:8 *433:A 0.00018211
7 *72:8 *435:B1 0.000106392
8 *72:12 *424:A 0.000419481
9 *72:12 *424:B 0.000337825
10 *72:12 *435:B1 0
11 *72:12 *461:CLK 0.000209506
12 *72:12 *490:A 0
13 *72:12 *494:A 0
14 *72:12 *73:29 0
15 *72:12 *104:52 0
16 *72:12 *116:33 0.000758928
17 *72:12 *120:10 0
18 *72:18 *108:14 0.000393736
19 *35:55 *72:12 0
20 *67:10 *72:18 0
*RES
1 *433:Y *72:8 41.5862 
2 *72:8 *72:12 31.5669 
3 *72:12 *72:18 41.8334 
4 *72:18 *436:B1 20 
*END

*D_NET *73 0.00828047
*CONN
*I *436:B2 I *D sg13cmos5l_a221oi_1
*I *437:A1 I *D sg13cmos5l_a21oi_1
*I *434:Y O *D sg13cmos5l_inv_1
*CAP
1 *436:B2 0
2 *437:A1 0.000601568
3 *434:Y 0.000472745
4 *73:29 0.000955469
5 *73:8 0.00202978
6 *437:A1 *112:8 0.00092447
7 *437:A1 *115:12 0
8 *437:A1 *115:102 0
9 *437:A1 *115:117 0
10 *437:A1 *117:39 0
11 *73:8 *434:A 0.00082306
12 *73:8 *460:CLK 0.000532745
13 *73:8 *466:CLK 0.000112519
14 *73:29 *424:A 0.000484164
15 *73:29 *436:C1 0.00024122
16 *73:29 *490:A 0
17 *73:29 *496:A 0.000394652
18 *73:29 *80:19 0
19 *73:29 *99:8 4.7526e-05
20 *4:10 *437:A1 0
21 *25:10 *73:29 0
22 *68:10 *73:29 0.000660555
23 *71:10 *437:A1 0
24 *72:12 *73:29 0
*RES
1 *434:Y *73:8 45.5105 
2 *73:8 *437:A1 47.0967 
3 *73:8 *73:29 30.8253 
4 *73:29 *436:B2 20 
*END

*D_NET *74 0.00286154
*CONN
*I *490:A I *D sg13cmos5l_dlygate4sd3_1
*I *435:Y O *D sg13cmos5l_a21oi_1
*CAP
1 *490:A 0.000915152
2 *435:Y 0.000915152
3 *490:A *435:B1 4.77425e-05
4 *490:A *471:A 0
5 *490:A *484:A 0
6 *490:A *78:17 0
7 *490:A *116:33 0.000112426
8 *436:A2 *490:A 0
9 *25:10 *490:A 0.00027301
10 *68:18 *490:A 0.000598055
11 *72:12 *490:A 0
12 *73:29 *490:A 0
*RES
1 *435:Y *490:A 49.4451 
*END

*D_NET *75 0.00122332
*CONN
*I *445:CLK I *D sg13cmos5l_dfrbpq_1
*I *459:Q O *D sg13cmos5l_dfrbpq_1
*CAP
1 *445:CLK 0.000196194
2 *459:Q 0.000415466
3 *75:10 0.00061166
4 *445:CLK *442:A 0
5 *445:CLK *445:D 0
6 *445:CLK *113:6 0
7 *27:10 *445:CLK 0
8 *27:10 *75:10 0
*RES
1 *459:Q *75:10 44.7174 
2 *75:10 *445:CLK 42.266 
*END

*D_NET *76 0.00085734
*CONN
*I *447:CLK I *D sg13cmos5l_dfrbpq_1
*I *467:Q O *D sg13cmos5l_dfrbpq_1
*CAP
1 *447:CLK 0
2 *467:Q 0.000307428
3 *76:10 0.000307428
4 *76:10 *442:A 0
5 *447:RESET_B *76:10 0.000242483
*RES
1 *467:Q *76:10 43.6977 
2 *76:10 *447:CLK 40 
*END

*D_NET *77 0.00453793
*CONN
*I *472:A I *D sg13cmos5l_buf_8
*I *470:A I *D sg13cmos5l_buf_8
*I *468:X O *D sg13cmos5l_buf_8
*CAP
1 *472:A 0.000131525
2 *470:A 0.000130173
3 *468:X 0
4 *77:31 0.00110461
5 *77:15 0.00116435
6 *77:6 0.00200727
7 *470:A *79:46 0
8 *470:A *119:26 0
9 *472:A *455:RESET_B 0
10 *472:A *81:10 0
11 *472:A *87:29 0
12 *77:15 *79:46 0
13 *77:15 *90:10 0
14 *77:15 *119:71 0
15 *77:31 *385:B_N 0
16 *77:31 *455:RESET_B 0
17 *77:31 *81:10 0
18 *77:31 *87:33 0
19 *77:31 *88:45 0
20 *77:31 *89:8 0
21 *77:31 *89:46 0
22 *77:31 *90:10 0
23 *77:31 *90:21 0
24 *3:6 *77:31 0
25 *8:12 *77:15 0
26 *8:14 *77:15 0
27 *8:59 *470:A 0
28 *8:59 *77:15 0
29 *52:10 *77:15 0
30 *52:10 *77:31 0
*RES
1 *468:X *77:6 40 
2 *77:6 *77:15 28.4151 
3 *77:15 *470:A 21.1021 
4 *77:6 *77:31 28.9095 
5 *77:31 *472:A 21.1021 
*END

*D_NET *78 0.00309616
*CONN
*I *473:A I *D sg13cmos5l_buf_8
*I *471:A I *D sg13cmos5l_buf_8
*I *469:X O *D sg13cmos5l_buf_8
*CAP
1 *473:A 0
2 *471:A 0.000156456
3 *469:X 0
4 *78:45 7.72408e-05
5 *78:37 0.00057692
6 *78:32 0.000562183
7 *78:17 0.000770989
8 *78:8 0.000752199
9 *78:4 0.00020017
10 *471:A *484:A 0
11 *78:8 *431:A 0
12 *78:17 *484:A 0
13 *78:17 *124:12 0
14 *78:32 *431:A 0
15 *78:45 *82:8 0
16 *422:A2 *78:45 0
17 *436:A2 *78:8 0
18 *436:A2 *78:17 0
19 *469:A *78:8 0
20 *490:A *471:A 0
21 *490:A *78:17 0
22 *4:10 *78:17 0
23 *66:12 *78:17 0
*RES
1 *469:X *78:4 20 
2 *78:4 *78:8 21.1845 
3 *78:8 *78:17 24.8101 
4 *78:17 *471:A 21.1845 
5 *78:4 *78:32 40.5356 
6 *78:32 *78:37 6.1594 
7 *78:37 *78:45 40.7365 
8 *78:45 *473:A 20 
*END

*D_NET *79 0.00532987
*CONN
*I *459:CLK I *D sg13cmos5l_dfrbpq_1
*I *456:CLK I *D sg13cmos5l_dfrbpq_1
*I *454:CLK I *D sg13cmos5l_dfrbpq_1
*I *449:CLK I *D sg13cmos5l_dfrbpq_1
*I *451:CLK I *D sg13cmos5l_dfrbpq_1
*I *450:CLK I *D sg13cmos5l_dfrbpq_1
*I *470:X O *D sg13cmos5l_buf_8
*CAP
1 *459:CLK 0.000364851
2 *456:CLK 0
3 *454:CLK 0
4 *449:CLK 0.000591662
5 *451:CLK 0.000186066
6 *450:CLK 0.000119682
7 *470:X 0.000335715
8 *79:53 0.000582231
9 *79:46 0.000520176
10 *79:35 0.000894457
11 *79:10 0.000641463
12 *449:CLK *480:A 0
13 *449:CLK *84:8 0.000273693
14 *449:CLK *118:56 0
15 *449:CLK *119:26 0
16 *450:CLK *392:B 8.00842e-05
17 *451:CLK *392:B 0.000273375
18 *459:CLK *442:A 0
19 *459:CLK *118:70 0
20 *459:CLK *124:10 0
21 *79:10 *392:A 0
22 *79:10 *118:56 0
23 *79:46 *118:56 0
24 *79:46 *118:63 0
25 *79:46 *119:26 0
26 *79:53 *118:63 0
27 *393:B *451:CLK 0.000338289
28 *394:B *450:CLK 0
29 *394:B *451:CLK 1.54556e-05
30 *454:D *79:10 0.000112667
31 *470:A *79:46 0
32 *8:59 *79:46 0
33 *8:59 *79:53 0
34 *17:12 *79:53 0
35 *77:15 *79:46 0
*RES
1 *470:X *79:10 42.9252 
2 *79:10 *450:CLK 41.133 
3 *79:10 *451:CLK 42.266 
4 *470:X *79:35 20 
5 *79:35 *449:CLK 25.7268 
6 *79:35 *79:46 3.3578 
7 *79:46 *454:CLK 20 
8 *79:46 *79:53 2.266 
9 *79:53 *456:CLK 20 
10 *79:53 *459:CLK 23.9964 
*END

*D_NET *80 0.00461353
*CONN
*I *465:CLK I *D sg13cmos5l_dfrbpq_1
*I *466:CLK I *D sg13cmos5l_dfrbpq_1
*I *460:CLK I *D sg13cmos5l_dfrbpq_1
*I *461:CLK I *D sg13cmos5l_dfrbpq_1
*I *471:X O *D sg13cmos5l_buf_8
*CAP
1 *465:CLK 0.000668903
2 *466:CLK 0.000294397
3 *460:CLK 0.000329483
4 *461:CLK 0.000173335
5 *471:X 0
6 *80:19 0.000997098
7 *80:15 0.00104212
8 *80:4 0.000173335
9 *460:CLK *460:RESET_B 0
10 *460:CLK *117:52 0
11 *461:CLK *120:10 0
12 *465:CLK *465:RESET_B 0
13 *465:CLK *117:35 0
14 *465:CLK *120:25 0
15 *466:CLK *432:A 0
16 *466:CLK *434:A 0
17 *466:CLK *117:52 0
18 *80:19 *496:A 0
19 *80:19 *117:35 0
20 *24:12 *465:CLK 8.00842e-05
21 *71:10 *460:CLK 0
22 *72:12 *461:CLK 0.000209506
23 *73:8 *460:CLK 0.000532745
24 *73:8 *466:CLK 0.000112519
25 *73:29 *80:19 0
*RES
1 *471:X *80:4 20 
2 *80:4 *461:CLK 21.751 
3 *80:4 *80:15 20 
4 *80:15 *80:19 23.3166 
5 *80:19 *460:CLK 23.5638 
6 *80:19 *466:CLK 22.6986 
7 *80:15 *465:CLK 45.8298 
*END

*D_NET *81 0.00599319
*CONN
*I *453:CLK I *D sg13cmos5l_dfrbpq_1
*I *452:CLK I *D sg13cmos5l_dfrbpq_1
*I *455:CLK I *D sg13cmos5l_dfrbpq_1
*I *458:CLK I *D sg13cmos5l_dfrbpq_1
*I *457:CLK I *D sg13cmos5l_dfrbpq_1
*I *474:A I *D sg13cmos5l_inv_1
*I *472:X O *D sg13cmos5l_buf_8
*CAP
1 *453:CLK 0
2 *452:CLK 0
3 *455:CLK 0
4 *458:CLK 0
5 *457:CLK 0
6 *474:A 0
7 *472:X 0
8 *81:60 0.000742071
9 *81:52 0.00112899
10 *81:33 0.000937145
11 *81:23 0.00113273
12 *81:14 0.00046636
13 *81:10 0.000567117
14 *81:4 0.000683255
15 *81:10 *455:RESET_B 0
16 *81:10 *87:29 0
17 *81:14 *382:A 0
18 *81:14 *455:RESET_B 0
19 *81:23 *119:79 0
20 *81:33 *91:8 0
21 *81:33 *91:34 0.000335524
22 *81:33 *92:8 0
23 *81:33 *119:79 0
24 *81:52 *87:29 0
25 *81:60 *383:A 0
26 *81:60 *398:A 0
27 *81:60 *87:8 0
28 *81:60 *118:36 0
29 *472:A *81:10 0
30 *42:29 *81:33 0
31 *77:31 *81:10 0
*RES
1 *472:X *81:4 20 
2 *81:4 *81:10 3.1827 
3 *81:10 *81:14 2.8634 
4 *81:14 *474:A 20 
5 *81:14 *81:23 2.4308 
6 *81:23 *81:33 49.6408 
7 *81:33 *457:CLK 20 
8 *81:23 *458:CLK 20 
9 *81:10 *455:CLK 20 
10 *81:4 *81:52 3.9449 
11 *81:52 *81:60 47.313 
12 *81:60 *452:CLK 20 
13 *81:52 *453:CLK 20 
*END

*D_NET *82 0.00598165
*CONN
*I *464:CLK I *D sg13cmos5l_dfrbpq_1
*I *467:CLK I *D sg13cmos5l_dfrbpq_1
*I *463:CLK I *D sg13cmos5l_dfrbpq_1
*I *462:CLK I *D sg13cmos5l_dfrbpq_1
*I *473:X O *D sg13cmos5l_buf_8
*CAP
1 *464:CLK 0.000785687
2 *467:CLK 0
3 *463:CLK 0
4 *462:CLK 0.000439895
5 *473:X 0.000207225
6 *82:30 0.000858807
7 *82:10 0.000915874
8 *82:8 0.000756324
9 *462:CLK *96:10 0.000395811
10 *462:CLK *96:14 0.000234224
11 *462:CLK *117:71 0
12 *462:CLK *122:21 0
13 *464:CLK *426:A 0
14 *464:CLK *442:A 0
15 *464:CLK *447:D 0.000372168
16 *464:CLK *492:A 0.000339683
17 *464:CLK *113:20 0
18 *82:8 *119:51 1.54008e-05
19 *82:10 *422:A1 0.000287672
20 *82:10 *96:10 0.000372884
21 *82:10 *113:20 0
22 *82:10 *122:21 0
23 *426:C *82:8 0
24 *447:RESET_B *464:CLK 0
25 *9:8 *464:CLK 0
26 *9:8 *82:10 0
27 *9:8 *82:30 0
28 *35:55 *82:10 0
29 *65:12 *462:CLK 0
30 *78:45 *82:8 0
*RES
1 *473:X *82:8 41.8334 
2 *82:8 *82:10 6.5302 
3 *82:10 *462:CLK 45.0882 
4 *82:10 *463:CLK 40 
5 *82:8 *82:30 0.8446 
6 *82:30 *467:CLK 40 
7 *82:30 *464:CLK 48.4872 
*END

*D_NET *83 0.00967092
*CONN
*I *397:A I *D sg13cmos5l_and4_2
*I *395:A I *D sg13cmos5l_nand3_1
*I *384:B_N I *D sg13cmos5l_nor2b_1
*I *392:A I *D sg13cmos5l_nand2_1
*I *390:A I *D sg13cmos5l_xnor2_1
*I *389:A I *D sg13cmos5l_inv_1
*I *449:Q O *D sg13cmos5l_dfrbpq_1
*CAP
1 *397:A 0.000214501
2 *395:A 0
3 *384:B_N 0
4 *392:A 0.000665827
5 *390:A 5.11725e-05
6 *389:A 0.000182887
7 *449:Q 0
8 *83:58 0.000597169
9 *83:47 0.00106921
10 *83:12 0.000536928
11 *83:8 0.00144288
12 *83:6 0.00116072
13 *390:A *390:B 1.54008e-05
14 *392:A *392:B 0
15 *392:A *393:A 0.000144768
16 *392:A *449:RESET_B 8.00842e-05
17 *392:A *118:56 0
18 *397:A *397:B 1.54556e-05
19 *83:8 *449:RESET_B 0.000159096
20 *83:8 *118:21 0.000935905
21 *83:12 *449:RESET_B 7.51285e-05
22 *83:47 *395:C 0.000112569
23 *83:47 *118:21 0.000856868
24 *83:58 *395:C 0.000273605
25 *393:B *389:A 0
26 *393:B *392:A 0.000759125
27 *396:B *397:A 0.000208791
28 *396:B *83:47 0
29 *449:D *389:A 0
30 *454:D *392:A 0.000112826
31 *47:12 *397:A 0
32 *47:12 *83:58 0
33 *79:10 *392:A 0
*RES
1 *449:Q *83:6 40 
2 *83:6 *83:8 5.047 
3 *83:8 *83:12 22.575 
4 *83:12 *389:A 21.9982 
5 *83:12 *390:A 20.5356 
6 *83:8 *392:A 47.0452 
7 *83:6 *83:47 26.7568 
8 *83:47 *384:B_N 20 
9 *83:47 *83:58 4.1406 
10 *83:58 *395:A 20 
11 *83:58 *397:A 22.1836 
*END

*D_NET *84 0.00720551
*CONN
*I *397:B I *D sg13cmos5l_and4_2
*I *395:B I *D sg13cmos5l_nand3_1
*I *384:A I *D sg13cmos5l_nor2b_1
*I *392:B I *D sg13cmos5l_nand2_1
*I *390:B I *D sg13cmos5l_xnor2_1
*I *450:Q O *D sg13cmos5l_dfrbpq_1
*CAP
1 *397:B 0.000127792
2 *395:B 0.000228772
3 *384:A 0
4 *392:B 0.000453177
5 *390:B 0.000312656
6 *450:Q 0.000169541
7 *84:40 0.000294579
8 *84:36 0.0007021
9 *84:10 0.000981844
10 *84:8 0.000894054
11 *392:B *478:A 0
12 *395:B *395:C 0
13 *397:B *397:C 8.02269e-05
14 *397:B *85:32 0.000212872
15 *84:8 *118:56 0
16 *84:10 *393:A 0.000341534
17 *84:36 *393:A 0.000106064
18 *84:36 *85:19 0.00151363
19 *84:36 *85:32 0.000128663
20 *84:40 *395:C 0
21 *390:A *390:B 1.54008e-05
22 *392:A *392:B 0
23 *393:B *392:B 0
24 *394:B *390:B 0
25 *394:B *392:B 0
26 *396:B *395:B 0
27 *396:B *397:B 0
28 *396:B *84:40 0
29 *397:A *397:B 1.54556e-05
30 *449:CLK *84:8 0.000273693
31 *450:CLK *392:B 8.00842e-05
32 *451:CLK *392:B 0.000273375
*RES
1 *450:Q *84:8 41.8334 
2 *84:8 *84:10 2.8222 
3 *84:10 *390:B 43.1724 
4 *84:10 *392:B 44.8822 
5 *84:8 *84:36 8.0134 
6 *84:36 *84:40 20.5356 
7 *84:40 *384:A 20 
8 *84:40 *395:B 21.8334 
9 *84:36 *397:B 41.6274 
*END

*D_NET *85 0.00638532
*CONN
*I *383:B_N I *D sg13cmos5l_nor2b_1
*I *397:D I *D sg13cmos5l_and4_2
*I *395:C I *D sg13cmos5l_nand3_1
*I *393:A I *D sg13cmos5l_xor2_1
*I *451:Q O *D sg13cmos5l_dfrbpq_1
*CAP
1 *383:B_N 0.000169201
2 *397:D 5.67151e-05
3 *395:C 0.00030477
4 *393:A 0.000536491
5 *451:Q 0
6 *85:32 0.000383434
7 *85:19 0.00095705
8 *85:6 0.00103125
9 *383:B_N *383:A 0
10 *393:A *480:A 0
11 *393:A *118:6 0
12 *393:A *118:56 0
13 *397:D *397:C 0.0001127
14 *392:A *393:A 0.000144768
15 *393:B *393:A 0
16 *395:B *395:C 0
17 *397:B *85:32 0.000212872
18 *39:8 *383:B_N 0
19 *83:47 *395:C 0.000112569
20 *83:58 *395:C 0.000273605
21 *84:10 *393:A 0.000341534
22 *84:36 *393:A 0.000106064
23 *84:36 *85:19 0.00151363
24 *84:36 *85:32 0.000128663
25 *84:40 *395:C 0
*RES
1 *451:Q *85:6 40 
2 *85:6 *393:A 45.4281 
3 *85:6 *85:19 7.0246 
4 *85:19 *395:C 42.8325 
5 *85:19 *85:32 2.0806 
6 *85:32 *397:D 40.7519 
7 *85:32 *383:B_N 42.0909 
*END

*D_NET *86 0.00442939
*CONN
*I *383:A I *D sg13cmos5l_nor2b_1
*I *397:C I *D sg13cmos5l_and4_2
*I *396:A I *D sg13cmos5l_xnor2_1
*I *452:Q O *D sg13cmos5l_dfrbpq_1
*CAP
1 *383:A 0.000229144
2 *397:C 0.000298379
3 *396:A 0.000200597
4 *452:Q 0.000408867
5 *86:10 0.000672402
6 *86:8 0.000811437
7 *396:A *118:21 0.000346247
8 *86:8 *118:36 0.000808285
9 *86:10 *118:21 0.000160758
10 *86:10 *118:36 0.000237204
11 *383:B_N *383:A 0
12 *396:B *396:A 1.54008e-05
13 *396:B *397:C 0
14 *397:B *397:C 8.02269e-05
15 *397:D *397:C 0.0001127
16 *452:D *397:C 4.77425e-05
17 *81:60 *383:A 0
*RES
1 *452:Q *86:8 44.3054 
2 *86:8 *86:10 1.8334 
3 *86:10 *396:A 42.1218 
4 *86:10 *397:C 43.399 
5 *86:8 *383:A 42.6106 
*END

*D_NET *87 0.00603261
*CONN
*I *399:A I *D sg13cmos5l_and2_1
*I *407:A I *D sg13cmos5l_and2_1
*I *404:A I *D sg13cmos5l_nand4_1
*I *386:A I *D sg13cmos5l_nor2b_1
*I *398:A I *D sg13cmos5l_xor2_1
*I *453:Q O *D sg13cmos5l_dfrbpq_1
*CAP
1 *399:A 9.98361e-06
2 *407:A 0
3 *404:A 6.74196e-05
4 *386:A 0.000114829
5 *398:A 0.000684041
6 *453:Q 0.000410236
7 *87:39 0.000602988
8 *87:33 0.00054985
9 *87:29 0.000627096
10 *87:8 0.00158228
11 *386:A *88:32 0.000234726
12 *386:A *88:45 5.30319e-05
13 *87:29 *455:RESET_B 0
14 *87:39 *455:RESET_B 8.0216e-05
15 *87:39 *88:45 0.000920426
16 *87:39 *88:55 1.54008e-05
17 *387:A *398:A 0
18 *399:B *87:29 0
19 *408:C *398:A 8.00842e-05
20 *453:D *398:A 0
21 *455:D *87:39 0
22 *472:A *87:29 0
23 *48:8 *386:A 0
24 *48:8 *87:39 0
25 *77:31 *87:33 0
26 *81:10 *87:29 0
27 *81:52 *87:29 0
28 *81:60 *398:A 0
29 *81:60 *87:8 0
*RES
1 *453:Q *87:8 43.811 
2 *87:8 *398:A 45.459 
3 *87:8 *87:29 44.6968 
4 *87:29 *87:33 21.339 
5 *87:33 *87:39 24.841 
6 *87:39 *386:A 41.339 
7 *87:39 *404:A 40.5356 
8 *87:33 *407:A 20 
9 *87:29 *399:A 40.1159 
*END

*D_NET *88 0.00517445
*CONN
*I *407:B I *D sg13cmos5l_and2_1
*I *402:A I *D sg13cmos5l_nand2_1
*I *404:B I *D sg13cmos5l_nand4_1
*I *386:B_N I *D sg13cmos5l_nor2b_1
*I *400:A I *D sg13cmos5l_xnor2_1
*I *454:Q O *D sg13cmos5l_dfrbpq_1
*CAP
1 *407:B 0
2 *402:A 0
3 *404:B 0
4 *386:B_N 3.05067e-05
5 *400:A 0.000128353
6 *454:Q 0.000143926
7 *88:55 0.000386084
8 *88:45 0.000627597
9 *88:32 0.000378611
10 *88:21 0.000714086
11 *88:8 0.00081876
12 *386:B_N *89:46 0
13 *400:A *119:71 0
14 *88:21 *119:71 0
15 *88:32 *89:46 7.51285e-05
16 *88:45 *89:46 0.000552831
17 *88:55 *455:RESET_B 7.95255e-05
18 *386:A *88:32 0.000234726
19 *386:A *88:45 5.30319e-05
20 *400:B *400:A 1.54556e-05
21 *402:B *88:55 0
22 *403:B *88:55 0
23 *404:D *386:B_N 0
24 *406:B *400:A 0
25 *406:B *88:8 0
26 *17:12 *88:8 0
27 *48:8 *400:A 0
28 *48:8 *88:21 0
29 *48:8 *88:32 0
30 *50:8 *88:55 0
31 *52:10 *88:21 0
32 *52:10 *88:32 0
33 *77:31 *88:45 0
34 *87:39 *88:45 0.000920426
35 *87:39 *88:55 1.54008e-05
*RES
1 *454:Q *88:8 41.1845 
2 *88:8 *400:A 41.1639 
3 *88:8 *88:21 4.7998 
4 *88:21 *386:B_N 40.3193 
5 *88:21 *88:32 1.8334 
6 *88:32 *404:B 40 
7 *88:32 *88:45 24.6247 
8 *88:45 *88:55 43.2136 
9 *88:55 *402:A 20 
10 *88:45 *407:B 20 
*END

*D_NET *89 0.00498184
*CONN
*I *385:A I *D sg13cmos5l_nor2b_1
*I *404:C I *D sg13cmos5l_nand4_1
*I *403:A I *D sg13cmos5l_xnor2_1
*I *408:A I *D sg13cmos5l_nand4_1
*I *455:Q O *D sg13cmos5l_dfrbpq_1
*CAP
1 *385:A 0
2 *404:C 0
3 *403:A 0
4 *408:A 0
5 *455:Q 0.000667939
6 *89:46 0.000279295
7 *89:28 0.000379973
8 *89:18 0.000422978
9 *89:16 0.000503757
10 *89:12 0.000205809
11 *89:8 0.000692291
12 *89:12 *455:RESET_B 0
13 *89:16 *455:RESET_B 0
14 *89:28 *408:B 0.000176611
15 *386:B_N *89:46 0
16 *403:B *89:18 1.54008e-05
17 *403:B *89:28 0.000208813
18 *404:D *89:46 1.54008e-05
19 *455:D *89:16 0.000177142
20 *3:6 *89:8 0
21 *40:12 *89:16 0
22 *40:12 *89:18 6.46834e-05
23 *40:12 *89:28 0.000496068
24 *42:16 *89:28 4.77201e-05
25 *47:42 *89:28 0
26 *54:10 *89:12 0
27 *77:31 *89:8 0
28 *77:31 *89:46 0
29 *88:32 *89:46 7.51285e-05
30 *88:45 *89:46 0.000552831
*RES
1 *455:Q *89:8 47.0246 
2 *89:8 *89:12 20.3193 
3 *89:12 *89:16 1.9982 
4 *89:16 *89:18 0.5356 
5 *89:18 *89:28 44.3878 
6 *89:28 *408:A 20 
7 *89:18 *403:A 20 
8 *89:16 *89:46 43.3578 
9 *89:46 *404:C 20 
10 *89:12 *385:A 20 
*END

*D_NET *90 0.00536725
*CONN
*I *385:B_N I *D sg13cmos5l_nor2b_1
*I *405:A I *D sg13cmos5l_xor2_1
*I *408:B I *D sg13cmos5l_nand4_1
*I *456:Q O *D sg13cmos5l_dfrbpq_1
*CAP
1 *385:B_N 5.95322e-05
2 *405:A 0
3 *408:B 0.000390493
4 *456:Q 0.000842834
5 *90:21 0.000119978
6 *90:10 0.00129377
7 *408:C *408:B 4.77425e-05
8 *3:6 *385:B_N 0
9 *3:6 *90:21 0
10 *8:12 *90:10 0.00167273
11 *8:12 *90:21 2.20966e-05
12 *17:12 *90:10 0
13 *42:16 *408:B 0.000241716
14 *54:10 *408:B 0.000499745
15 *77:15 *90:10 0
16 *77:31 *385:B_N 0
17 *77:31 *90:10 0
18 *77:31 *90:21 0
19 *89:28 *408:B 0.000176611
*RES
1 *456:Q *90:10 49.3833 
2 *90:10 *408:B 44.2127 
3 *90:10 *90:21 0.5974 
4 *90:21 *405:A 40 
5 *90:21 *385:B_N 40.5974 
*END

*D_NET *91 0.0016291
*CONN
*I *409:A I *D sg13cmos5l_xnor2_1
*I *412:S I *D sg13cmos5l_mux2_1
*I *388:A I *D sg13cmos5l_nor3_1
*I *457:Q O *D sg13cmos5l_dfrbpq_1
*CAP
1 *409:A 0
2 *412:S 0
3 *388:A 0.000213491
4 *457:Q 0.000123748
5 *91:34 0.000134676
6 *91:14 0.000242646
7 *91:12 0.000301822
8 *91:8 0.000261739
9 *91:34 *457:RESET_B 0
10 *91:34 *119:79 0
11 *412:A0 *91:12 0
12 *412:A1 *388:A 0
13 *42:16 *388:A 0
14 *42:29 *388:A 0
15 *42:29 *91:8 0
16 *42:29 *91:12 0
17 *42:29 *91:34 0
18 *54:25 *388:A 0
19 *54:25 *91:34 1.54556e-05
20 *81:33 *91:8 0
21 *81:33 *91:34 0.000335524
*RES
1 *457:Q *91:8 41.339 
2 *91:8 *91:12 21.4008 
3 *91:12 *91:14 0.3193 
4 *91:14 *388:A 21.8334 
5 *91:14 *412:S 20 
6 *91:12 *91:34 41.9055 
7 *91:34 *409:A 20 
*END

*D_NET *92 0.00272938
*CONN
*I *410:A I *D sg13cmos5l_and2_1
*I *411:A I *D sg13cmos5l_xnor2_1
*I *382:A I *D sg13cmos5l_inv_1
*I *458:Q O *D sg13cmos5l_dfrbpq_1
*CAP
1 *410:A 0.000314271
2 *411:A 0
3 *382:A 2.29439e-05
4 *458:Q 0.000514176
5 *92:27 0.000135302
6 *92:12 0.000288388
7 *92:10 0.000444413
8 *92:8 0.000514176
9 *410:A *119:79 0
10 *92:8 *119:79 0.00012816
11 *92:27 *119:79 0
12 *412:A0 *410:A 0
13 *412:A1 *410:A 0
14 *412:A1 *92:12 0
15 *458:D *410:A 1.54285e-05
16 *3:6 *92:27 0
17 *37:8 *92:27 0.000288917
18 *54:10 *92:27 1.54008e-05
19 *54:25 *92:12 0
20 *54:25 *92:27 4.7803e-05
21 *81:14 *382:A 0
22 *81:33 *92:8 0
*RES
1 *458:Q *92:8 45.7886 
2 *92:8 *92:10 20 
3 *92:10 *92:12 1.1845 
4 *92:12 *382:A 20.3193 
5 *92:12 *92:27 41.9055 
6 *92:27 *411:A 20 
7 *92:10 *410:A 23.5844 
*END

*D_NET *93 0.000457451
*CONN
*I *445:D I *D sg13cmos5l_dfrbpq_1
*I *446:L_HI O *D sg13cmos5l_tiehi
*CAP
1 *445:D 0.000228726
2 *446:L_HI 0.000228726
3 *445:D *113:6 0
4 *445:CLK *445:D 0
*RES
1 *446:L_HI *445:D 41.2964 
*END

*D_NET *94 0.00238932
*CONN
*I *480:A I *D sg13cmos5l_buf_1
*I *497:X O *D sg13cmos5l_buf_1
*CAP
1 *480:A 0.00078497
2 *497:X 0.00078497
3 *480:A *479:A 0.000803925
4 *480:A *118:6 1.54556e-05
5 *393:A *480:A 0
6 *449:CLK *480:A 0
*RES
1 *497:X *480:A 48.5284 
*END

*D_NET *95 0.00138982
*CONN
*I *447:D I *D sg13cmos5l_dfrbpq_1
*I *448:L_HI O *D sg13cmos5l_tiehi
*CAP
1 *447:D 0.000508828
2 *448:L_HI 0.000508828
3 *447:D *426:A 0
4 *447:D *105:10 0
5 *447:RESET_B *447:D 0
6 *464:CLK *447:D 0.000372168
*RES
1 *448:L_HI *447:D 44.9955 
*END

*D_NET *96 0.00497857
*CONN
*I *422:A1 I *D sg13cmos5l_a21oi_1
*I *423:B1 I *D sg13cmos5l_a21oi_1
*I *379:A I *D sg13cmos5l_and2_1
*I *414:A I *D sg13cmos5l_nand4_1
*I *481:X O *D sg13cmos5l_dlygate4sd3_1
*CAP
1 *422:A1 0.00032859
2 *423:B1 0.000299468
3 *379:A 5.4786e-05
4 *414:A 0.000348357
5 *481:X 0.000135471
6 *96:14 0.00056263
7 *96:10 0.000668576
8 *96:8 0.000673682
9 *379:A *379:B 8.03692e-05
10 *379:A *419:C 0
11 *414:A *414:D 0
12 *414:A *419:C 0
13 *422:A1 *422:B1 0
14 *423:B1 *463:D 0
15 *423:B1 *122:21 0
16 *96:8 *422:B1 0
17 *96:8 *122:21 0
18 *96:14 *379:B 0
19 *96:14 *117:71 0
20 *96:14 *122:21 0
21 *422:A2 *422:A1 5.16069e-05
22 *462:CLK *96:10 0.000395811
23 *462:CLK *96:14 0.000234224
24 *35:8 *414:A 0
25 *35:55 *422:A1 0
26 *35:55 *96:10 0
27 *36:14 *96:10 0
28 *36:14 *96:14 0
29 *65:12 *379:A 0.000112667
30 *65:12 *414:A 0.000371779
31 *65:12 *423:B1 0
32 *82:10 *422:A1 0.000287672
33 *82:10 *96:10 0.000372884
*RES
1 *481:X *96:8 41.4008 
2 *96:8 *96:10 3.5638 
3 *96:10 *96:14 22.0806 
4 *96:14 *414:A 23.6977 
5 *96:14 *379:A 20.7519 
6 *96:10 *423:B1 42.8943 
7 *96:8 *422:A1 43.3887 
*END

*D_NET *97 0.00180214
*CONN
*I *425:B I *D sg13cmos5l_nor3_1
*I *482:X O *D sg13cmos5l_dlygate4sd3_1
*CAP
1 *425:B 3.5152e-05
2 *482:X 0.000338065
3 *97:8 0.000373217
4 *97:8 *113:20 0
5 *97:8 *115:91 0.000234726
6 *97:8 *122:21 0
7 *425:A *425:B 0
8 *23:8 *97:8 0.000820983
*RES
1 *482:X *97:8 44.3054 
2 *97:8 *425:B 40.3193 
*END

*D_NET *98 0.000639163
*CONN
*I *463:D I *D sg13cmos5l_dfrbpq_1
*I *483:X O *D sg13cmos5l_dlygate4sd3_1
*CAP
1 *463:D 0.000279457
2 *483:X 0.000279457
3 *423:B1 *463:D 0
4 *65:12 *463:D 8.02485e-05
*RES
1 *483:X *463:D 42.7295 
*END

*D_NET *99 0.010348
*CONN
*I *429:A I *D sg13cmos5l_and3_1
*I *434:A I *D sg13cmos5l_inv_1
*I *427:B1 I *D sg13cmos5l_a21oi_1
*I *475:A I *D sg13cmos5l_buf_1
*I *484:X O *D sg13cmos5l_dlygate4sd3_1
*CAP
1 *429:A 0.000591632
2 *434:A 0.000883125
3 *427:B1 0.000129334
4 *475:A 0.000561595
5 *484:X 2.66631e-05
6 *99:14 0.000950634
7 *99:10 0.00129505
8 *99:8 0.000770514
9 *427:B1 *427:A1 0
10 *427:B1 *430:B1 4.6942e-05
11 *427:B1 *114:22 0
12 *429:A *104:10 0.000394151
13 *429:A *116:10 0
14 *429:A *124:12 0.000553662
15 *429:A *125:12 0
16 *434:A *432:A 0
17 *434:A *461:RESET_B 8.0216e-05
18 *434:A *487:A 0
19 *434:A *104:52 0
20 *475:A *417:A 0
21 *475:A *430:B1 0.000435569
22 *475:A *114:22 0
23 *475:A *117:52 0
24 *99:10 *430:A1 0
25 *99:10 *116:10 0
26 *99:10 *124:12 0.000659726
27 *99:10 *126:8 0.000394151
28 *99:14 *430:A1 0
29 *99:14 *124:12 0.000266405
30 *99:14 *124:14 0.000212127
31 *99:14 *124:18 0.000181608
32 *433:B *434:A 0
33 *436:A2 *429:A 0.000448186
34 *466:CLK *434:A 0
35 *25:10 *429:A 0
36 *25:10 *99:8 4.7526e-05
37 *67:10 *427:B1 4.78195e-05
38 *69:8 *429:A 0.000500803
39 *70:8 *475:A 0
40 *73:8 *434:A 0.00082306
41 *73:29 *99:8 4.7526e-05
*RES
1 *484:X *99:8 40.3193 
2 *99:8 *99:10 3.0694 
3 *99:10 *99:14 23.5638 
4 *99:14 *475:A 25.2118 
5 *99:14 *427:B1 21.1845 
6 *99:10 *434:A 48.5387 
7 *99:8 *429:A 47.9413 
*END

*D_NET *100 0.00173417
*CONN
*I *431:A I *D sg13cmos5l_nor3_1
*I *485:X O *D sg13cmos5l_dlygate4sd3_1
*CAP
1 *431:A 0.000867085
2 *485:X 0.000867085
3 *431:A *465:RESET_B 0
4 *431:A *465:D 0
5 *431:A *484:A 0
6 *431:B *431:A 0
7 *485:A *431:A 0
8 *4:10 *431:A 0
9 *24:12 *431:A 0
10 *78:8 *431:A 0
11 *78:32 *431:A 0
*RES
1 *485:X *431:A 47.4749 
*END

*D_NET *101 0.00101713
*CONN
*I *464:D I *D sg13cmos5l_dfrbpq_1
*I *486:X O *D sg13cmos5l_dlygate4sd3_1
*CAP
1 *464:D 0.000130323
2 *486:X 0.00013635
3 *101:8 0.000266672
4 *464:D *119:51 0.000241847
5 *24:12 *464:D 0.000241941
*RES
1 *486:X *101:8 41.339 
2 *101:8 *464:D 41.6171 
*END

*D_NET *102 0.00443028
*CONN
*I *413:A I *D sg13cmos5l_inv_1
*I *378:B_N I *D sg13cmos5l_nor2b_1
*I *439:B I *D sg13cmos5l_nor3_1
*I *487:X O *D sg13cmos5l_dlygate4sd3_1
*CAP
1 *413:A 4.51702e-05
2 *378:B_N 2.4226e-05
3 *439:B 0
4 *487:X 0.000333041
5 *102:22 0.000484356
6 *102:12 0.000638336
7 *102:8 0.000507965
8 *378:B_N *114:46 0
9 *102:22 *114:46 0
10 *415:B *102:12 0.000234224
11 *439:A *102:22 0
12 *440:A2 *102:22 0
13 *488:A *102:22 0.000273639
14 *32:10 *102:22 0
15 *35:40 *102:8 0.000234726
16 *57:8 *102:12 0.00026599
17 *58:27 *378:B_N 4.77425e-05
18 *58:27 *102:22 0.000500271
19 *59:8 *102:12 0.000446352
20 *66:12 *102:8 0.000394237
*RES
1 *487:X *102:8 44.0582 
2 *102:8 *102:12 22.575 
3 *102:12 *102:22 44.9749 
4 *102:22 *439:B 20 
5 *102:12 *378:B_N 20.3193 
6 *102:8 *413:A 40.3193 
*END

*D_NET *103 0.000673422
*CONN
*I *466:D I *D sg13cmos5l_dfrbpq_1
*I *488:X O *D sg13cmos5l_dlygate4sd3_1
*CAP
1 *466:D 0
2 *488:X 0.000336711
3 *103:8 0.000336711
4 *4:10 *103:8 0
5 *30:8 *103:8 0
*RES
1 *488:X *103:8 43.0694 
2 *103:8 *466:D 40 
*END

*D_NET *104 0.0121947
*CONN
*I *380:B I *D sg13cmos5l_nand4_1
*I *435:B1 I *D sg13cmos5l_a21oi_1
*I *433:A I *D sg13cmos5l_nand2_1
*I *414:D I *D sg13cmos5l_nand4_1
*I *436:A1 I *D sg13cmos5l_a221oi_1
*I *489:X O *D sg13cmos5l_dlygate4sd3_1
*CAP
1 *380:B 0
2 *435:B1 0.000311272
3 *433:A 0.00013003
4 *414:D 0.000155066
5 *436:A1 5.91655e-05
6 *489:X 0.000112258
7 *104:54 0.000441302
8 *104:52 0.00124254
9 *104:33 0.00164205
10 *104:22 0.000847087
11 *104:14 0.00103352
12 *104:10 0.000602299
13 *414:D *414:B 0
14 *414:D *108:14 0.000341949
15 *414:D *114:63 0
16 *104:10 *124:12 0.000393736
17 *104:14 *380:A 0.000176559
18 *104:14 *464:RESET_B 0.000175853
19 *104:14 *119:51 0
20 *104:22 *424:A 0
21 *104:22 *494:A 0
22 *104:22 *109:8 0.000234726
23 *104:33 *108:14 0.000690662
24 *104:33 *114:63 0
25 *104:33 *114:74 0
26 *104:52 *424:B 0.000193454
27 *104:52 *487:A 0.000143861
28 *104:52 *116:33 0.000759021
29 *414:A *414:D 0
30 *429:A *104:10 0.000394151
31 *433:B *433:A 0
32 *433:B *104:52 0
33 *434:A *104:52 0
34 *436:A2 *436:A1 0
35 *490:A *435:B1 4.77425e-05
36 *34:34 *104:14 0.000467875
37 *35:8 *414:D 0
38 *35:40 *104:52 0
39 *35:55 *104:22 0
40 *35:55 *104:52 0
41 *36:8 *104:22 0.000609193
42 *36:14 *104:22 0.000394814
43 *58:10 *104:52 0
44 *65:12 *104:52 0.000306035
45 *66:8 *104:14 0
46 *72:8 *433:A 0.00018211
47 *72:8 *435:B1 0.000106392
48 *72:12 *435:B1 0
49 *72:12 *104:52 0
*RES
1 *489:X *104:10 42.1527 
2 *104:10 *104:14 24.8616 
3 *104:14 *104:22 46.2315 
4 *104:22 *436:A1 20.5356 
5 *104:22 *104:33 23.3166 
6 *104:33 *414:D 42.0338 
7 *104:33 *104:52 32.7308 
8 *104:52 *104:54 20 
9 *104:54 *433:A 41.3802 
10 *104:54 *435:B1 42.987 
11 *104:14 *380:B 20 
*END

*D_NET *105 0.00338257
*CONN
*I *498:A I *D sg13cmos5l_buf_1
*I *443:A1 I *D sg13cmos5l_a21oi_1
*I *444:A1 I *D sg13cmos5l_a21oi_1
*I *445:Q O *D sg13cmos5l_dfrbpq_1
*CAP
1 *498:A 0.000711605
2 *443:A1 3.63385e-05
3 *444:A1 0
4 *445:Q 0.000334549
5 *105:21 0.000866602
6 *105:10 0.000453207
7 *443:A1 *113:6 1.54008e-05
8 *498:A *113:12 5.30319e-05
9 *105:10 *442:A 0
10 *105:10 *113:20 0.000662216
11 *105:21 *113:12 0.000249625
12 *447:RESET_B *105:10 0
13 *447:D *105:10 0
14 *27:10 *498:A 0
*RES
1 *445:Q *105:10 44.4702 
2 *105:10 *444:A1 40 
3 *105:10 *105:21 1.6583 
4 *105:21 *443:A1 40.3193 
5 *105:21 *498:A 49.0022 
*END

*D_NET *106 0.000736075
*CONN
*I *436:C1 I *D sg13cmos5l_a221oi_1
*I *490:X O *D sg13cmos5l_dlygate4sd3_1
*CAP
1 *436:C1 0.000175415
2 *490:X 0.000175415
3 *436:A2 *436:C1 0
4 *25:10 *436:C1 0.000144025
5 *73:29 *436:C1 0.00024122
*RES
1 *490:X *436:C1 41.9673 
*END

*D_NET *107 0.000643306
*CONN
*I *465:D I *D sg13cmos5l_dfrbpq_1
*I *491:X O *D sg13cmos5l_dlygate4sd3_1
*CAP
1 *465:D 0.000201046
2 *491:X 0.000201046
3 *465:D *484:A 0.000241215
4 *431:A *465:D 0
5 *4:10 *465:D 0
*RES
1 *491:X *465:D 42.2145 
*END

*D_NET *108 0.00370431
*CONN
*I *380:A I *D sg13cmos5l_nand4_1
*I *414:C I *D sg13cmos5l_nand4_1
*I *492:X O *D sg13cmos5l_dlygate4sd3_1
*CAP
1 *380:A 0.000110629
2 *414:C 0
3 *492:X 0.00012922
4 *108:14 0.000754592
5 *108:8 0.000994442
6 *380:A *119:51 0.000112525
7 *108:8 *381:A 0
8 *108:14 *381:A 0
9 *108:14 *110:8 0
10 *108:14 *114:74 0
11 *414:D *108:14 0.000341949
12 *34:34 *108:14 0
13 *67:10 *108:14 0
14 *72:18 *108:14 0.000393736
15 *104:14 *380:A 0.000176559
16 *104:33 *108:14 0.000690662
*RES
1 *492:X *108:8 41.339 
2 *108:8 *108:14 30.0631 
3 *108:14 *414:C 20 
4 *108:8 *380:A 41.1845 
*END

*D_NET *109 0.000847343
*CONN
*I *381:B I *D sg13cmos5l_nor2_1
*I *493:X O *D sg13cmos5l_dlygate4sd3_1
*CAP
1 *381:B 0
2 *493:X 0.000135706
3 *109:8 0.000135706
4 *109:8 *381:A 0
5 *380:D *109:8 0.000106064
6 *9:8 *109:8 0
7 *35:55 *109:8 0.000235141
8 *104:22 *109:8 0.000234726
*RES
1 *493:X *109:8 42.0806 
2 *109:8 *381:B 40 
*END

*D_NET *110 0.00382921
*CONN
*I *414:B I *D sg13cmos5l_nand4_1
*I *419:C I *D sg13cmos5l_nand3_1
*I *420:A2 I *D sg13cmos5l_o21ai_1
*I *418:A1 I *D sg13cmos5l_a21oi_1
*I *494:X O *D sg13cmos5l_dlygate4sd3_1
*CAP
1 *414:B 5.84529e-05
2 *419:C 0.000513289
3 *420:A2 0.000175768
4 *418:A1 0
5 *494:X 0.000111858
6 *110:16 0.000525944
7 *110:10 0.00102537
8 *110:8 0.000332211
9 *419:C *379:B 0
10 *419:C *462:D 0
11 *419:C *114:22 0
12 *419:C *115:76 4.77537e-05
13 *419:C *115:91 1.54556e-05
14 *419:C *117:63 0
15 *420:A2 *420:A1 1.54008e-05
16 *420:A2 *114:30 0
17 *420:A2 *115:59 0
18 *110:10 *114:63 0
19 *110:16 *114:30 0
20 *379:A *419:C 0
21 *414:A *419:C 0
22 *414:D *414:B 0
23 *440:A1 *110:16 0
24 *22:10 *110:10 0.000234311
25 *22:10 *110:16 0.000501131
26 *34:19 *110:16 0
27 *35:8 *414:B 0
28 *35:8 *419:C 0
29 *36:14 *420:A2 0.000209033
30 *36:14 *110:16 1.54449e-05
31 *60:10 *420:A2 4.77863e-05
32 *60:10 *110:16 0
33 *62:10 *420:A2 0
34 *67:10 *110:10 0
35 *67:10 *110:16 0
36 *108:14 *110:8 0
*RES
1 *494:X *110:8 41.0918 
2 *110:8 *110:10 2.0806 
3 *110:10 *110:16 24.3775 
4 *110:16 *418:A1 20 
5 *110:16 *420:A2 21.8334 
6 *110:10 *419:C 44.6659 
7 *110:8 *414:B 40.5356 
*END

*D_NET *111 0.00043578
*CONN
*I *462:D I *D sg13cmos5l_dfrbpq_1
*I *495:X O *D sg13cmos5l_dlygate4sd3_1
*CAP
1 *462:D 0.000122115
2 *495:X 0.000122115
3 *462:D *419:A 7.94972e-05
4 *462:D *114:22 0.000112051
5 *419:C *462:D 0
*RES
1 *495:X *462:D 41.1845 
*END

*D_NET *112 0.00178584
*CONN
*I *476:A I *D sg13cmos5l_buf_1
*I *496:X O *D sg13cmos5l_dlygate4sd3_1
*CAP
1 *476:A 0
2 *496:X 0.000275802
3 *112:8 0.000275802
4 *437:A1 *112:8 0.00092447
5 *4:10 *112:8 0
6 *35:27 *112:8 0.00012816
7 *68:10 *112:8 0.000181608
*RES
1 *496:X *112:8 44.3054 
2 *112:8 *476:A 40 
*END

*D_NET *113 0.00738363
*CONN
*I *443:A2 I *D sg13cmos5l_a21oi_1
*I *444:A2 I *D sg13cmos5l_a21oi_1
*I *499:A I *D sg13cmos5l_buf_1
*I *447:Q O *D sg13cmos5l_dfrbpq_1
*CAP
1 *443:A2 0
2 *444:A2 3.06385e-05
3 *499:A 0
4 *447:Q 0.000325688
5 *113:20 0.00142011
6 *113:12 0.00156289
7 *113:6 0.000437833
8 *113:20 *115:91 0
9 *443:A1 *113:6 1.54008e-05
10 *445:D *113:6 0
11 *445:CLK *113:6 0
12 *464:CLK *113:20 0
13 *498:A *113:12 5.30319e-05
14 *7:8 *113:20 0
15 *23:8 *113:20 0.000874015
16 *27:10 *113:6 0
17 *28:8 *113:20 0.000768367
18 *63:10 *113:20 0
19 *64:8 *113:20 0.000983812
20 *82:10 *113:20 0
21 *97:8 *113:20 0
22 *105:10 *113:20 0.000662216
23 *105:21 *113:12 0.000249625
*RES
1 *447:Q *113:6 23.3475 
2 *113:6 *113:12 21.6583 
3 *113:12 *113:20 40.0232 
4 *113:20 *499:A 20 
5 *113:12 *444:A2 40.3193 
6 *113:6 *443:A2 20 
*END

*D_NET *114 0.015403
*CONN
*I *419:A I *D sg13cmos5l_nand3_1
*I *381:A I *D sg13cmos5l_nor2_1
*I *422:B1 I *D sg13cmos5l_a21oi_1
*I *424:A I *D sg13cmos5l_and3_1
*I *418:B1 I *D sg13cmos5l_a21oi_1
*I *415:A I *D sg13cmos5l_nor3_1
*I *440:B1 I *D sg13cmos5l_o21ai_1
*I *417:A I *D sg13cmos5l_xor2_1
*I *475:X O *D sg13cmos5l_buf_1
*CAP
1 *419:A 0.000503713
2 *381:A 0.000547787
3 *422:B1 0.000500475
4 *424:A 0.000347316
5 *418:B1 0
6 *415:A 0
7 *440:B1 0
8 *417:A 0.000173965
9 *475:X 0.00159143
10 *114:74 0.00121015
11 *114:63 0.000966033
12 *114:46 0.000235109
13 *114:38 0.000561598
14 *114:30 0.000745238
15 *114:24 0.000875576
16 *114:22 0.00192118
17 *381:A *426:A 0.000112223
18 *417:A *460:RESET_B 0
19 *419:A *115:76 0
20 *422:B1 *481:A 0
21 *422:B1 *122:21 0
22 *424:A *494:A 0
23 *114:22 *117:63 0
24 *114:30 *115:59 0.000177306
25 *114:38 *115:59 0
26 *378:B_N *114:46 0
27 *414:D *114:63 0
28 *415:C *114:38 0
29 *415:C *114:46 0
30 *419:C *114:22 0
31 *420:A2 *114:30 0
32 *422:A1 *422:B1 0
33 *422:A2 *422:B1 0
34 *427:B1 *114:22 0
35 *440:A1 *114:38 9.72114e-05
36 *440:A1 *114:46 0.00027466
37 *462:D *419:A 7.94972e-05
38 *462:D *114:22 0.000112051
39 *475:A *417:A 0
40 *475:A *114:22 0
41 *482:A *422:B1 0
42 *4:10 *114:46 0
43 *22:10 *114:30 0
44 *22:10 *114:63 0
45 *36:8 *381:A 0.000590066
46 *36:14 *381:A 0.000290996
47 *36:14 *114:30 0.000606376
48 *36:14 *114:63 0.00141207
49 *36:14 *114:74 0.000504027
50 *60:10 *114:30 4.79124e-05
51 *61:10 *419:A 0
52 *66:8 *381:A 0
53 *67:10 *114:22 0
54 *70:8 *417:A 1.54008e-05
55 *72:12 *424:A 0.000419481
56 *73:29 *424:A 0.000484164
57 *96:8 *422:B1 0
58 *102:22 *114:46 0
59 *104:22 *424:A 0
60 *104:33 *114:63 0
61 *104:33 *114:74 0
62 *108:8 *381:A 0
63 *108:14 *381:A 0
64 *108:14 *114:74 0
65 *109:8 *381:A 0
66 *110:10 *114:63 0
67 *110:16 *114:30 0
*RES
1 *475:X *417:A 41.8437 
2 *475:X *114:22 28.8889 
3 *114:22 *114:24 20 
4 *114:24 *114:30 24.7483 
5 *114:30 *114:38 43.605 
6 *114:38 *114:46 42.678 
7 *114:46 *440:B1 20 
8 *114:38 *415:A 20 
9 *114:30 *418:B1 20 
10 *114:24 *114:63 6.5302 
11 *114:63 *424:A 43.8882 
12 *114:63 *114:74 2.3278 
13 *114:74 *422:B1 44.6453 
14 *114:74 *381:A 46.7877 
15 *114:22 *419:A 23.5123 
*END

*D_NET *115 0.00941297
*CONN
*I *417:B I *D sg13cmos5l_xor2_1
*I *416:A I *D sg13cmos5l_nor2_1
*I *423:A1 I *D sg13cmos5l_a21oi_1
*I *419:B I *D sg13cmos5l_nand3_1
*I *420:A1 I *D sg13cmos5l_o21ai_1
*I *378:A I *D sg13cmos5l_nor2b_1
*I *438:A I *D sg13cmos5l_inv_1
*I *437:A2 I *D sg13cmos5l_a21oi_1
*I *476:X O *D sg13cmos5l_buf_1
*CAP
1 *417:B 0
2 *416:A 4.69264e-05
3 *423:A1 0
4 *419:B 0
5 *420:A1 3.64002e-05
6 *378:A 0
7 *438:A 0
8 *437:A2 0
9 *476:X 0
10 *115:117 0.00026871
11 *115:102 0.000541881
12 *115:91 0.000343736
13 *115:76 0.000771427
14 *115:59 0.00101632
15 *115:40 0.000692265
16 *115:33 0.000299509
17 *115:25 0.00075117
18 *115:12 0.000509291
19 *115:6 0.000423907
20 *115:91 *379:B 0.000181192
21 *115:91 *423:A2 8.00842e-05
22 *115:91 *122:21 7.52158e-05
23 *115:117 *460:RESET_B 4.77425e-05
24 *115:117 *117:39 7.51285e-05
25 *416:B *416:A 0
26 *416:B *115:102 8.00425e-05
27 *419:C *115:76 4.77537e-05
28 *419:C *115:91 1.54556e-05
29 *419:A *115:76 0
30 *420:A2 *420:A1 1.54008e-05
31 *420:A2 *115:59 0
32 *437:A1 *115:12 0
33 *437:A1 *115:102 0
34 *437:A1 *115:117 0
35 *441:A1 *115:12 8.00842e-05
36 *441:A1 *115:25 0.000112689
37 *441:A1 *115:40 0.000209374
38 *441:A1 *115:59 1.54008e-05
39 *441:A2 *115:12 1.54556e-05
40 *441:A2 *115:25 0
41 *488:A *115:12 0
42 *20:10 *115:117 0
43 *23:8 *115:91 0
44 *36:14 *115:76 0
45 *58:27 *115:12 0
46 *58:27 *115:25 0.00030621
47 *58:27 *115:40 0
48 *58:27 *115:59 5.6983e-05
49 *61:10 *115:59 0.00012816
50 *61:10 *115:76 0.000899282
51 *62:10 *115:59 0.000229362
52 *62:10 *115:76 0.000394151
53 *70:12 *115:117 0.000234224
54 *97:8 *115:91 0.000234726
55 *113:20 *115:91 0
56 *114:30 *115:59 0.000177306
57 *114:38 *115:59 0
*RES
1 *476:X *115:6 40 
2 *115:6 *115:12 21.8746 
3 *115:12 *437:A2 20 
4 *115:12 *115:25 3.502 
5 *115:25 *115:33 42.369 
6 *115:33 *438:A 20 
7 *115:25 *115:40 1.4008 
8 *115:40 *378:A 20 
9 *115:40 *115:59 26.7053 
10 *115:59 *420:A1 40.3193 
11 *115:59 *115:76 25.9637 
12 *115:76 *419:B 20 
13 *115:76 *115:91 44.2642 
14 *115:91 *423:A1 20 
15 *115:6 *115:102 21.7819 
16 *115:102 *416:A 20.3193 
17 *115:102 *115:117 43.3887 
18 *115:117 *417:B 20 
*END

*D_NET *116 0.00780636
*CONN
*I *429:B I *D sg13cmos5l_and3_1
*I *424:B I *D sg13cmos5l_and3_1
*I *435:A1 I *D sg13cmos5l_a21oi_1
*I *430:A1 I *D sg13cmos5l_a21oi_1
*I *477:X O *D sg13cmos5l_buf_1
*CAP
1 *429:B 5.42695e-05
2 *424:B 0.000194597
3 *435:A1 0
4 *430:A1 0.000688269
5 *477:X 0.000103523
6 *116:33 0.000641438
7 *116:23 0.000836035
8 *116:10 0.00159641
9 *116:8 0.00106593
10 *429:B *125:6 0
11 *430:A1 *430:B1 0
12 *430:A1 *117:52 0
13 *430:A1 *126:8 0
14 *116:8 *124:12 0
15 *116:10 *125:12 0
16 *429:A *116:10 0
17 *429:C *429:B 8.0216e-05
18 *429:C *116:10 0
19 *435:A2 *116:33 8.00842e-05
20 *436:A2 *116:10 0
21 *490:A *116:33 0.000112426
22 *4:10 *430:A1 0
23 *4:10 *116:10 0
24 *8:20 *116:8 0
25 *8:20 *116:10 0
26 *25:10 *116:10 0
27 *35:27 *430:A1 8.01612e-05
28 *35:40 *424:B 8.0216e-05
29 *35:55 *424:B 1.54008e-05
30 *68:18 *116:33 0.00012816
31 *69:8 *116:10 0
32 *70:12 *116:33 0
33 *72:12 *424:B 0.000337825
34 *72:12 *116:33 0.000758928
35 *99:10 *430:A1 0
36 *99:10 *116:10 0
37 *99:14 *430:A1 0
38 *104:52 *424:B 0.000193454
39 *104:52 *116:33 0.000759021
*RES
1 *477:X *116:8 41.0918 
2 *116:8 *116:10 8.5078 
3 *116:10 *430:A1 46.6332 
4 *116:10 *116:23 20 
5 *116:23 *116:33 47.6632 
6 *116:33 *435:A1 20 
7 *116:23 *424:B 22.266 
8 *116:8 *429:B 40.5356 
*END

*D_NET *117 0.0119176
*CONN
*I *464:RESET_B I *D sg13cmos5l_dfrbpq_1
*I *461:RESET_B I *D sg13cmos5l_dfrbpq_1
*I *462:RESET_B I *D sg13cmos5l_dfrbpq_1
*I *463:RESET_B I *D sg13cmos5l_dfrbpq_1
*I *466:RESET_B I *D sg13cmos5l_dfrbpq_1
*I *460:RESET_B I *D sg13cmos5l_dfrbpq_1
*I *451:RESET_B I *D sg13cmos5l_dfrbpq_1
*I *450:RESET_B I *D sg13cmos5l_dfrbpq_1
*I *478:X O *D sg13cmos5l_buf_1
*CAP
1 *464:RESET_B 0.000536247
2 *461:RESET_B 4.25262e-05
3 *462:RESET_B 0
4 *463:RESET_B 0
5 *466:RESET_B 2.77263e-05
6 *460:RESET_B 0.000334942
7 *451:RESET_B 0.000242481
8 *450:RESET_B 0.000119672
9 *478:X 0.000217917
10 *117:71 0.000562319
11 *117:63 0.00119534
12 *117:52 0.00102844
13 *117:39 0.000929993
14 *117:35 0.00116271
15 *117:33 0.00151056
16 *117:8 0.000498577
17 *464:RESET_B *426:A 0
18 *464:RESET_B *119:51 0
19 *464:RESET_B *125:6 0
20 *117:33 *119:30 0.000288588
21 *117:35 *465:RESET_B 0.000661059
22 *117:35 *119:30 0.000159839
23 *117:52 *430:B1 0
24 *117:63 *427:A1 0
25 *117:63 *428:A 7.92329e-05
26 *117:63 *430:B1 0
27 *117:71 *494:A 0
28 *117:71 *122:21 0
29 *391:B *451:RESET_B 0
30 *394:B *451:RESET_B 0
31 *394:B *117:8 0
32 *417:A *460:RESET_B 0
33 *419:C *117:63 0
34 *429:C *464:RESET_B 0
35 *430:A1 *117:52 0
36 *432:C *117:52 8.00842e-05
37 *433:B *461:RESET_B 8.0216e-05
38 *434:A *461:RESET_B 8.0216e-05
39 *437:A1 *117:39 0
40 *451:D *450:RESET_B 7.52632e-05
41 *451:D *451:RESET_B 0
42 *451:D *117:8 0.000112514
43 *460:CLK *460:RESET_B 0
44 *460:CLK *117:52 0
45 *462:CLK *117:71 0
46 *465:CLK *117:35 0
47 *466:CLK *117:52 0
48 *475:A *117:52 0
49 *8:20 *464:RESET_B 0.000241313
50 *8:32 *117:35 0
51 *35:8 *117:52 0
52 *35:8 *117:63 0.000596406
53 *35:10 *117:63 0
54 *35:12 *117:52 0.000258238
55 *35:12 *117:63 0
56 *35:27 *117:52 8.00842e-05
57 *35:55 *117:71 0
58 *36:14 *117:71 0
59 *67:10 *117:63 0
60 *70:8 *460:RESET_B 0
61 *70:8 *117:52 0
62 *70:12 *117:35 0
63 *70:12 *117:39 0
64 *71:10 *117:35 7.51285e-05
65 *71:10 *117:39 0.000341204
66 *71:10 *117:52 0
67 *80:19 *117:35 0
68 *96:14 *117:71 0
69 *104:14 *464:RESET_B 0.000175853
70 *114:22 *117:63 0
71 *115:117 *460:RESET_B 4.77425e-05
72 *115:117 *117:39 7.51285e-05
*RES
1 *478:X *117:8 21.5656 
2 *117:8 *450:RESET_B 21.3493 
3 *117:8 *451:RESET_B 22.4823 
4 *478:X *117:33 41.339 
5 *117:33 *117:35 9.2494 
6 *117:35 *117:39 22.575 
7 *117:39 *460:RESET_B 23.296 
8 *117:39 *117:52 3.914 
9 *117:52 *466:RESET_B 20.3502 
10 *117:52 *117:63 6.077 
11 *117:63 *117:71 45.0882 
12 *117:71 *463:RESET_B 20 
13 *117:63 *462:RESET_B 20 
14 *117:35 *461:RESET_B 40.5356 
15 *117:33 *464:RESET_B 45.2942 
*END

*D_NET *118 0.0127801
*CONN
*I *442:A I *D sg13cmos5l_inv_1
*I *459:RESET_B I *D sg13cmos5l_dfrbpq_1
*I *456:RESET_B I *D sg13cmos5l_dfrbpq_1
*I *454:RESET_B I *D sg13cmos5l_dfrbpq_1
*I *453:RESET_B I *D sg13cmos5l_dfrbpq_1
*I *455:RESET_B I *D sg13cmos5l_dfrbpq_1
*I *452:RESET_B I *D sg13cmos5l_dfrbpq_1
*I *449:RESET_B I *D sg13cmos5l_dfrbpq_1
*I *479:X O *D sg13cmos5l_buf_1
*CAP
1 *442:A 0.000590912
2 *459:RESET_B 0
3 *456:RESET_B 0
4 *454:RESET_B 0
5 *453:RESET_B 2.77263e-05
6 *455:RESET_B 0.000659391
7 *452:RESET_B 8.82243e-05
8 *449:RESET_B 0.00014355
9 *479:X 8.98526e-05
10 *118:70 0.000965897
11 *118:63 0.000577594
12 *118:56 0.00111721
13 *118:36 0.00127776
14 *118:21 0.00141283
15 *118:8 0.000877508
16 *118:6 0.00100445
17 *118:70 *124:10 0
18 *392:A *449:RESET_B 8.00842e-05
19 *392:A *118:56 0
20 *393:B *449:RESET_B 0.000112399
21 *393:A *118:6 0
22 *393:A *118:56 0
23 *396:A *118:21 0.000346247
24 *399:B *455:RESET_B 0
25 *402:B *455:RESET_B 0
26 *403:B *455:RESET_B 0
27 *445:CLK *442:A 0
28 *447:RESET_B *442:A 0
29 *449:CLK *118:56 0
30 *453:D *455:RESET_B 0
31 *454:D *118:56 0
32 *455:D *455:RESET_B 0
33 *459:D *118:63 0
34 *459:D *118:70 0
35 *459:CLK *442:A 0
36 *459:CLK *118:70 0
37 *464:CLK *442:A 0
38 *472:A *455:RESET_B 0
39 *480:A *118:6 1.54556e-05
40 *76:10 *442:A 0
41 *77:31 *455:RESET_B 0
42 *79:10 *118:56 0
43 *79:46 *118:56 0
44 *79:46 *118:63 0
45 *79:53 *118:63 0
46 *81:10 *455:RESET_B 0
47 *81:14 *455:RESET_B 0
48 *81:60 *118:36 0
49 *83:8 *449:RESET_B 0.000159096
50 *83:8 *118:21 0.000935905
51 *83:12 *449:RESET_B 7.51285e-05
52 *83:47 *118:21 0.000856868
53 *84:8 *118:56 0
54 *86:8 *118:36 0.000808285
55 *86:10 *118:21 0.000160758
56 *86:10 *118:36 0.000237204
57 *87:29 *455:RESET_B 0
58 *87:39 *455:RESET_B 8.0216e-05
59 *88:55 *455:RESET_B 7.95255e-05
60 *89:12 *455:RESET_B 0
61 *89:16 *455:RESET_B 0
62 *105:10 *442:A 0
*RES
1 *479:X *118:6 20.7519 
2 *118:6 *118:8 20 
3 *118:8 *449:RESET_B 41.8437 
4 *118:8 *118:21 11.4742 
5 *118:21 *452:RESET_B 40.7519 
6 *118:21 *118:36 27.7147 
7 *118:36 *455:RESET_B 25.3528 
8 *118:36 *453:RESET_B 20.3502 
9 *118:6 *118:56 6.8667 
10 *118:56 *454:RESET_B 20 
11 *118:56 *118:63 2.266 
12 *118:63 *456:RESET_B 20 
13 *118:63 *118:70 2.1924 
14 *118:70 *459:RESET_B 20 
15 *118:70 *442:A 26.5714 
*END

*D_NET *119 0.0155485
*CONN
*I *457:RESET_B I *D sg13cmos5l_dfrbpq_1
*I *458:RESET_B I *D sg13cmos5l_dfrbpq_1
*I *478:A I *D sg13cmos5l_buf_1
*I *467:RESET_B I *D sg13cmos5l_dfrbpq_1
*I *465:RESET_B I *D sg13cmos5l_dfrbpq_1
*I *479:A I *D sg13cmos5l_buf_1
*I *480:X O *D sg13cmos5l_buf_1
*CAP
1 *457:RESET_B 0.000261529
2 *458:RESET_B 0
3 *478:A 8.93873e-05
4 *467:RESET_B 0
5 *465:RESET_B 0.000343124
6 *479:A 0.000479176
7 *480:X 0.000900744
8 *119:79 0.00068533
9 *119:71 0.0019958
10 *119:51 0.00140193
11 *119:30 0.00192716
12 *119:28 0.0007521
13 *119:26 0.00195111
14 *465:RESET_B *484:A 0.00011235
15 *119:28 *120:25 0
16 *119:30 *120:25 0
17 *380:A *119:51 0.000112525
18 *392:B *478:A 0
19 *394:B *478:A 4.79124e-05
20 *400:A *119:71 0
21 *406:A *119:26 0.000339245
22 *410:A *119:79 0
23 *422:A2 *119:51 0
24 *426:C *119:51 0
25 *431:A *465:RESET_B 0
26 *449:CLK *119:26 0
27 *454:D *478:A 0
28 *457:D *457:RESET_B 0
29 *464:RESET_B *119:51 0
30 *464:D *119:51 0.000241847
31 *465:CLK *465:RESET_B 0
32 *467:D *119:51 0
33 *468:A *119:71 0
34 *470:A *119:26 0
35 *480:A *479:A 0.000803925
36 *3:6 *119:79 0
37 *8:14 *119:28 0
38 *8:20 *478:A 0
39 *8:59 *119:26 9.69791e-05
40 *15:8 *119:28 0
41 *15:8 *119:71 0
42 *18:8 *119:79 0
43 *24:12 *119:51 0
44 *52:10 *119:71 0.00114505
45 *54:25 *457:RESET_B 0
46 *54:25 *119:71 0
47 *54:25 *119:79 0.000608233
48 *77:15 *119:71 0
49 *79:46 *119:26 0
50 *81:23 *119:79 0
51 *81:33 *119:79 0
52 *82:8 *119:51 1.54008e-05
53 *88:21 *119:71 0
54 *91:34 *457:RESET_B 0
55 *91:34 *119:79 0
56 *92:8 *119:79 0.00012816
57 *92:27 *119:79 0
58 *104:14 *119:51 0
59 *117:33 *119:30 0.000288588
60 *117:35 *465:RESET_B 0.000661059
61 *117:35 *119:30 0.000159839
*RES
1 *480:X *479:A 45.8504 
2 *480:X *119:26 44.2127 
3 *119:26 *119:28 5.2942 
4 *119:28 *119:30 2.575 
5 *119:30 *465:RESET_B 44.1659 
6 *119:30 *119:51 32.9265 
7 *119:51 *467:RESET_B 20 
8 *119:28 *478:A 40.9682 
9 *119:26 *119:71 31.2064 
10 *119:71 *119:79 48.0237 
11 *119:79 *458:RESET_B 20 
12 *119:71 *457:RESET_B 22.9149 
*END

*D_NET *120 0.00528368
*CONN
*I *477:A I *D sg13cmos5l_buf_1
*I *496:A I *D sg13cmos5l_dlygate4sd3_1
*I *460:Q O *D sg13cmos5l_dfrbpq_1
*CAP
1 *477:A 0
2 *496:A 0.000199225
3 *460:Q 0.000392579
4 *120:25 0.00119757
5 *120:10 0.00178937
6 *120:25 *125:6 0
7 *429:C *120:25 0
8 *459:D *120:25 0.000274677
9 *461:CLK *120:10 0
10 *465:CLK *120:25 0
11 *8:20 *120:25 0.000502289
12 *68:18 *120:10 0.000533317
13 *72:12 *120:10 0
14 *73:29 *496:A 0.000394652
15 *80:19 *496:A 0
16 *119:28 *120:25 0
17 *119:30 *120:25 0
*RES
1 *460:Q *120:10 44.1612 
2 *120:10 *496:A 42.0806 
3 *120:10 *120:25 31.0519 
4 *120:25 *477:A 20 
*END

*D_NET *121 0.00135672
*CONN
*I *484:A I *D sg13cmos5l_dlygate4sd3_1
*I *461:Q O *D sg13cmos5l_dfrbpq_1
*CAP
1 *484:A 0.00050158
2 *461:Q 0.00050158
3 *431:A *484:A 0
4 *465:RESET_B *484:A 0.00011235
5 *465:D *484:A 0.000241215
6 *471:A *484:A 0
7 *490:A *484:A 0
8 *4:10 *484:A 0
9 *78:17 *484:A 0
*RES
1 *461:Q *484:A 45.1088 
*END

*D_NET *122 0.00320352
*CONN
*I *423:A2 I *D sg13cmos5l_a21oi_1
*I *379:B I *D sg13cmos5l_and2_1
*I *494:A I *D sg13cmos5l_dlygate4sd3_1
*I *462:Q O *D sg13cmos5l_dfrbpq_1
*CAP
1 *423:A2 6.43146e-05
2 *379:B 0.000177701
3 *494:A 0.000304029
4 *462:Q 0
5 *122:21 0.000880196
6 *122:4 0.000942209
7 *379:A *379:B 8.03692e-05
8 *419:C *379:B 0
9 *422:B1 *122:21 0
10 *423:B1 *122:21 0
11 *424:A *494:A 0
12 *462:CLK *122:21 0
13 *35:55 *494:A 0.000305783
14 *65:12 *379:B 0
15 *65:12 *423:A2 0.000112426
16 *72:12 *494:A 0
17 *82:10 *122:21 0
18 *96:8 *122:21 0
19 *96:14 *379:B 0
20 *96:14 *122:21 0
21 *97:8 *122:21 0
22 *104:22 *494:A 0
23 *115:91 *379:B 0.000181192
24 *115:91 *423:A2 8.00842e-05
25 *115:91 *122:21 7.52158e-05
26 *117:71 *494:A 0
27 *117:71 *122:21 0
*RES
1 *462:Q *122:4 20 
2 *122:4 *494:A 23.3269 
3 *122:4 *122:21 26.3654 
4 *122:21 *379:B 42.0291 
5 *122:21 *423:A2 40.7519 
*END

*D_NET *123 0.000619524
*CONN
*I *481:A I *D sg13cmos5l_dlygate4sd3_1
*I *463:Q O *D sg13cmos5l_dfrbpq_1
*CAP
1 *481:A 0.000188657
2 *463:Q 0.000188657
3 *422:A2 *481:A 0.000226808
4 *422:B1 *481:A 0
5 *36:23 *481:A 1.54008e-05
*RES
1 *463:Q *481:A 42.2145 
*END

*D_NET *124 0.0093852
*CONN
*I *492:A I *D sg13cmos5l_dlygate4sd3_1
*I *432:A I *D sg13cmos5l_nand3_1
*I *428:A I *D sg13cmos5l_and2_1
*I *427:A1 I *D sg13cmos5l_a21oi_1
*I *430:B1 I *D sg13cmos5l_a21oi_1
*I *464:Q O *D sg13cmos5l_dfrbpq_1
*CAP
1 *492:A 0.000274457
2 *432:A 0.000311332
3 *428:A 4.74954e-05
4 *427:A1 0.000113939
5 *430:B1 0.00035379
6 *464:Q 0.000318116
7 *124:18 0.000531499
8 *124:14 0.000202954
9 *124:12 0.00158833
10 *124:10 0.00177788
11 *492:A *426:A 0
12 *427:B1 *427:A1 0
13 *427:B1 *430:B1 4.6942e-05
14 *429:A *124:12 0.000553662
15 *430:A1 *430:B1 0
16 *432:B *432:A 0
17 *434:A *432:A 0
18 *456:D *124:10 0
19 *459:D *492:A 0.00016733
20 *459:CLK *124:10 0
21 *464:CLK *492:A 0.000339683
22 *466:CLK *432:A 0
23 *475:A *430:B1 0.000435569
24 *35:12 *428:A 7.92329e-05
25 *35:40 *124:12 0
26 *66:12 *124:12 0
27 *67:10 *427:A1 4.78195e-05
28 *68:10 *432:A 0.000402332
29 *78:17 *124:12 0
30 *99:10 *124:12 0.000659726
31 *99:14 *124:12 0.000266405
32 *99:14 *124:14 0.000212127
33 *99:14 *124:18 0.000181608
34 *104:10 *124:12 0.000393736
35 *116:8 *124:12 0
36 *117:52 *430:B1 0
37 *117:63 *427:A1 0
38 *117:63 *428:A 7.92329e-05
39 *117:63 *430:B1 0
40 *118:70 *124:10 0
*RES
1 *464:Q *124:10 43.3578 
2 *124:10 *124:12 13.2046 
3 *124:12 *124:14 1.0918 
4 *124:14 *124:18 20.8446 
5 *124:18 *430:B1 23.4814 
6 *124:18 *427:A1 20.9682 
7 *124:14 *428:A 40.5356 
8 *124:12 *432:A 43.1312 
9 *124:10 *492:A 43.1312 
*END

*D_NET *125 0.00328106
*CONN
*I *426:A I *D sg13cmos5l_nand3_1
*I *489:A I *D sg13cmos5l_dlygate4sd3_1
*I *465:Q O *D sg13cmos5l_dfrbpq_1
*CAP
1 *426:A 0.0010908
2 *489:A 0
3 *465:Q 0.000212336
4 *125:12 0.000217115
5 *125:6 0.00152025
6 *381:A *426:A 0.000112223
7 *426:B *426:A 0
8 *429:A *125:12 0
9 *429:B *125:6 0
10 *429:C *125:6 0
11 *447:D *426:A 0
12 *459:D *426:A 0
13 *459:D *125:6 0
14 *464:RESET_B *426:A 0
15 *464:RESET_B *125:6 0
16 *464:CLK *426:A 0
17 *492:A *426:A 0
18 *66:8 *426:A 0
19 *69:8 *125:12 0.000128334
20 *116:10 *125:12 0
21 *120:25 *125:6 0
*RES
1 *465:Q *125:6 22.0497 
2 *125:6 *125:12 41.8334 
3 *125:12 *489:A 20 
4 *125:6 *426:A 30.712 
*END

*D_NET *126 0.00110824
*CONN
*I *487:A I *D sg13cmos5l_dlygate4sd3_1
*I *466:Q O *D sg13cmos5l_dfrbpq_1
*CAP
1 *487:A 0.00015385
2 *466:Q 0.000131265
3 *126:8 0.000285116
4 *430:A1 *126:8 0
5 *434:A *487:A 0
6 *99:10 *126:8 0.000394151
7 *104:52 *487:A 0.000143861
*RES
1 *466:Q *126:8 41.8334 
2 *126:8 *487:A 41.4008 
*END
