*SPEF "ieee 1481-1999"
*DESIGN "fb_clk_gen"
*DATE "04:14:34 Wednesday September 09, 2026"
*VENDOR "The OpenROAD Project"
*PROGRAM "OpenROAD"
*VERSION "dcf36133a369abc8f3c5e5738cd4d82e4903c0e0"
*DESIGN_FLOW "NAME_SCOPE LOCAL" "PIN_CAP NONE"
*DIVIDER /
*DELIMITER :
*BUS_DELIMITER []
*T_UNIT 1 NS
*C_UNIT 1 PF
*R_UNIT 1 OHM
*L_UNIT 1 HENRY

*NAME_MAP
*3 clk_i
*4 clk_out
*5 _000_
*6 _002_
*7 _003_
*8 _004_
*9 _005_
*10 _006_
*11 _007_
*12 _008_
*13 _009_
*14 _010_
*15 _011_
*16 _012_
*17 _013_
*18 _014_
*19 _015_
*20 _016_
*21 _017_
*22 _018_
*23 _019_
*24 _020_
*25 _021_
*26 _022_
*27 _023_
*28 _024_
*29 _025_
*30 _026_
*31 _027_
*32 _028_
*33 _029_
*34 _030_
*35 _031_
*36 _032_
*37 _033_
*38 _034_
*39 _035_
*40 _036_
*41 _037_
*42 _038_
*43 clknet_0_div2
*44 clknet_1_0__leaf_div2
*45 clknet_1_1__leaf_div2
*46 count\[0\]
*47 count\[1\]
*48 count\[2\]
*49 count\[3\]
*50 count\[4\]
*51 count\[5\]
*52 count\[6\]
*53 count\[7\]
*54 count\[8\]
*55 div2
*56 net
*57 net1
*58 net10
*59 net11
*60 net12
*61 net13
*62 net14
*63 net15
*64 net2
*65 net3
*66 net4
*67 net5
*68 net6
*69 net7
*70 net8
*71 net9
*72 FILLER_0_0
*73 FILLER_0_123
*74 FILLER_0_130
*75 FILLER_0_137
*76 FILLER_0_139
*77 FILLER_0_14
*78 FILLER_0_21
*79 FILLER_0_28
*80 FILLER_0_60
*81 FILLER_0_64
*82 FILLER_0_7
*83 FILLER_0_71
*84 FILLER_0_78
*85 FILLER_0_80
*86 FILLER_1_0
*87 FILLER_1_113
*88 FILLER_1_120
*89 FILLER_1_127
*90 FILLER_1_134
*91 FILLER_1_138
*92 FILLER_1_19
*93 FILLER_1_21
*94 FILLER_1_26
*95 FILLER_1_68
*96 FILLER_1_7
*97 FILLER_1_70
*98 FILLER_1_76
*99 FILLER_2_0
*100 FILLER_2_11
*101 FILLER_2_118
*102 FILLER_2_122
*103 FILLER_2_129
*104 FILLER_2_136
*105 FILLER_2_16
*106 FILLER_2_23
*107 FILLER_2_27
*108 FILLER_2_66
*109 FILLER_2_7
*110 FILLER_3_0
*111 FILLER_3_123
*112 FILLER_3_130
*113 FILLER_3_137
*114 FILLER_3_139
*115 FILLER_3_14
*116 FILLER_3_21
*117 FILLER_3_28
*118 FILLER_3_56
*119 FILLER_3_64
*120 FILLER_3_7
*121 FILLER_4_123
*122 FILLER_4_130
*123 FILLER_4_137
*124 FILLER_4_139
*125 FILLER_4_19
*126 FILLER_4_26
*127 FILLER_4_28
*128 FILLER_4_4
*129 FILLER_4_61
*130 FILLER_4_63
*131 FILLER_4_79
*132 FILLER_4_87
*133 FILLER_5_0
*134 FILLER_5_114
*135 FILLER_5_118
*136 FILLER_5_123
*137 FILLER_5_130
*138 FILLER_5_137
*139 FILLER_5_139
*140 FILLER_5_19
*141 FILLER_5_21
*142 FILLER_5_26
*143 FILLER_5_30
*144 FILLER_5_38
*145 FILLER_5_40
*146 FILLER_5_7
*147 FILLER_5_81
*148 FILLER_6_0
*149 FILLER_6_106
*150 FILLER_6_113
*151 FILLER_6_120
*152 FILLER_6_127
*153 FILLER_6_134
*154 FILLER_6_138
*155 FILLER_6_14
*156 FILLER_6_21
*157 FILLER_6_26
*158 FILLER_6_28
*159 FILLER_6_69
*160 FILLER_6_7
*161 FILLER_6_76
*162 FILLER_6_87
*163 FILLER_6_92
*164 FILLER_6_99
*165 _050_
*166 _051_
*167 _052_
*168 _053_
*169 _054_
*170 _055_
*171 _056__16
*172 _057_
*173 _058_
*174 _059_
*175 _060_
*176 _061_
*177 _062_
*178 _063_
*179 _064_
*180 _065_
*181 _066_
*182 _067_
*183 _068_
*184 _069_
*185 _070_
*186 _071_
*187 _072_
*188 _073_
*189 _074_
*190 _075_
*191 _076_
*192 _077_
*193 _078_
*194 _079_
*195 _080_
*196 _081_
*197 _082_
*198 _083_
*199 _084_
*200 _085_
*201 _086_
*202 _087_
*203 _088_
*204 _089_
*205 _089__15
*206 _090_
*207 _090__7
*208 _091_
*209 _091__8
*210 _092_
*211 _092__14
*212 _093_
*213 _093__13
*214 _094_
*215 _094__12
*216 _095_
*217 _095__11
*218 _096_
*219 _096__10
*220 _097_
*221 _097__9
*222 _098_
*223 _098__6
*224 _099_
*225 _099__5
*226 clkbuf_0_div2
*227 clkbuf_1_0__f_div2
*228 clkbuf_1_1__f_div2
*229 clkload0
*230 fanout2
*231 fanout3
*232 fanout4
*233 output1

*PORTS
clk_i I
clk_out O

*D_NET *3 0.00430893
*CONN
*P clk_i I
*I *212:CLK I *D sg13cmos5l_dfrbpq_1
*CAP
1 clk_i 0.00121439
2 *212:CLK 0
3 *3:9 0.00121439
4 *3:9 *174:B 8.00842e-05
5 *3:9 *6:10 8.0194e-05
6 *3:9 *54:12 0.000555923
7 *3:9 *54:14 7.65627e-05
8 *3:9 *63:10 0.00108739
*RES
1 clk_i *3:9 33.4415 
2 *3:9 *212:CLK 20 
*END

*D_NET *4 0.000597011
*CONN
*P clk_out O
*I *233:X O *D sg13cmos5l_buf_1
*CAP
1 clk_out 0.000298506
2 *233:X 0.000298506
3 clk_out *57:20 0
*RES
1 *233:X clk_out 43.1415 
*END

*D_NET *5 0.0013737
*CONN
*I *210:D I *D sg13cmos5l_dfrbpq_1
*I *170:X O *D sg13cmos5l_and3_1
*CAP
1 *210:D 0.000397831
2 *170:X 0.000397831
3 *210:D *180:B 0.000241847
4 *210:D *180:A_N 0.000111966
5 *210:D *15:14 0.000144822
6 *210:D *27:8 7.9407e-05
*RES
1 *170:X *210:D 43.8316 
*END

*D_NET *6 0.00330952
*CONN
*I *206:D I *D sg13cmos5l_dfrbpq_1
*I *174:Y O *D sg13cmos5l_xnor2_1
*CAP
1 *206:D 0.00019649
2 *174:Y 0.000689295
3 *6:10 0.000885786
4 *206:D *45:8 0
5 *6:10 *174:B 7.9407e-05
6 *6:10 *43:35 0
7 *6:10 *53:18 0
8 *6:10 *54:12 0.000533834
9 *6:10 *54:14 0.000129595
10 *6:10 *63:10 0.000714918
11 *3:9 *6:10 8.0194e-05
*RES
1 *174:Y *6:10 48.1782 
2 *6:10 *206:D 41.6171 
*END

*D_NET *7 0.00417131
*CONN
*I *208:D I *D sg13cmos5l_dfrbpq_1
*I *182:Y O *D sg13cmos5l_a21oi_1
*CAP
1 *208:D 0.000465105
2 *182:Y 0.000296876
3 *7:16 0.000805333
4 *7:10 0.000637104
5 *208:D *230:A 0.000112667
6 *208:D *53:18 0
7 *208:D *53:51 1.54008e-06
8 *208:D *64:12 0
9 *208:D *64:20 0
10 *7:10 *166:B 0.000340288
11 *7:10 *166:A_N 0.000182121
12 *7:10 *182:B1 1.54008e-05
13 *7:10 *22:12 0
14 *7:10 *26:14 0.000182121
15 *7:10 *28:28 8.00231e-05
16 *7:10 *37:10 0.000234224
17 *7:10 *46:22 7.9703e-05
18 *7:10 *51:18 0.000375083
19 *7:10 *52:12 0.00018211
20 *7:10 *52:14 0.000181608
21 *7:16 *54:54 0
22 *7:16 *64:20 0
*RES
1 *182:Y *7:10 45.0882 
2 *7:10 *7:16 43.5638 
3 *7:16 *208:D 44.6144 
*END

*D_NET *8 0.00292853
*CONN
*I *214:D I *D sg13cmos5l_dfrbpq_1
*I *183:Y O *D sg13cmos5l_a21oi_1
*CAP
1 *214:D 0
2 *183:Y 0.00050391
3 *8:10 0.00050391
4 *8:10 *46:33 0.000659813
5 *8:10 *59:10 0.0011807
6 *8:10 *66:12 8.01933e-05
*RES
1 *183:Y *8:10 47.6529 
2 *8:10 *214:D 40 
*END

*D_NET *9 0.00170688
*CONN
*I *216:D I *D sg13cmos5l_dfrbpq_1
*I *185:Y O *D sg13cmos5l_o21ai_1
*CAP
1 *216:D 5.61002e-05
2 *185:Y 0.000525964
3 *9:10 0.000582064
4 *216:D *19:28 8.00842e-05
5 *9:10 *185:B1 1.54008e-05
6 *9:10 *15:8 0.000447269
7 *9:10 *65:78 0
*RES
1 *185:Y *9:10 44.841 
2 *9:10 *216:D 40.5356 
*END

*D_NET *10 0.000951655
*CONN
*I *218:D I *D sg13cmos5l_dfrbpq_1
*I *187:Y O *D sg13cmos5l_xnor2_1
*CAP
1 *218:D 0
2 *187:Y 0.000475827
3 *10:10 0.000475827
4 *10:10 *71:12 0
*RES
1 *187:Y *10:10 44.9337 
2 *10:10 *218:D 40 
*END

*D_NET *11 0.000426707
*CONN
*I *220:D I *D sg13cmos5l_dfrbpq_1
*I *189:Y O *D sg13cmos5l_xnor2_1
*CAP
1 *220:D 0.000189496
2 *189:Y 0.000189496
3 *220:D *189:A 4.77154e-05
4 *220:D *189:B 0
5 *220:D *218:CLK 0
*RES
1 *189:Y *220:D 41.5971 
*END

*D_NET *12 0.000398577
*CONN
*I *222:D I *D sg13cmos5l_dfrbpq_1
*I *197:Y O *D sg13cmos5l_o21ai_1
*CAP
1 *222:D 0.000199288
2 *197:Y 0.000199288
3 *222:D *38:18 0
4 *222:D *46:6 0
5 *222:D *46:14 0
*RES
1 *197:Y *222:D 41.8849 
*END

*D_NET *13 0.00198539
*CONN
*I *224:D I *D sg13cmos5l_dfrbpq_1
*I *199:Y O *D sg13cmos5l_xnor2_1
*CAP
1 *224:D 3.29486e-05
2 *199:Y 0.000711621
3 *13:10 0.000744569
4 *224:D *224:RESET_B 0
5 *13:10 *224:CLK 0
6 *13:10 *40:10 0.000448513
7 *13:10 *51:14 0
8 *13:10 *52:6 4.77425e-05
9 *13:10 *62:8 0
*RES
1 *199:Y *13:10 47.3201 
2 *13:10 *224:D 40.3193 
*END

*D_NET *14 0.000661492
*CONN
*I *204:D I *D sg13cmos5l_dfrbpq_1
*I *203:Y O *D sg13cmos5l_a21oi_1
*CAP
1 *204:D 0.000271872
2 *203:Y 0.000271872
3 *204:D *166:A_N 0
4 *204:D *179:C 0
5 *204:D *202:A 0
6 *204:D *204:RESET_B 0
7 *204:D *28:28 0
8 *204:D *64:34 3.76204e-05
9 *204:D *64:40 8.01283e-05
*RES
1 *203:Y *204:D 43.0591 
*END

*D_NET *15 0.00372461
*CONN
*I *191:A I *D sg13cmos5l_nand2_1
*I *170:A I *D sg13cmos5l_and3_1
*I *165:Y O *D sg13cmos5l_inv_1
*CAP
1 *191:A 3.48984e-05
2 *170:A 0
3 *165:Y 0.000140593
4 *15:29 0.000885418
5 *15:14 0.00107251
6 *15:8 0.000362583
7 *15:8 *65:78 0
8 *15:14 *170:C 0.000194237
9 *15:14 *214:CLK 0
10 *15:14 *19:28 4.77201e-05
11 *15:14 *44:6 0
12 *15:29 *214:CLK 0
13 *15:29 *32:20 0.000394566
14 *15:29 *44:54 0
15 *15:29 *46:33 0
16 *210:D *15:14 0.000144822
17 *9:10 *15:8 0.000447269
*RES
1 *165:Y *15:8 42.0806 
2 *15:8 *15:14 22.6471 
3 *15:14 *170:A 20 
4 *15:14 *15:29 49.9807 
5 *15:29 *191:A 20.3193 
*END

*D_NET *16 0.00173456
*CONN
*I *169:A I *D sg13cmos5l_nor3_2
*I *181:A I *D sg13cmos5l_nor4_1
*I *190:C I *D sg13cmos5l_nor4_1
*I *166:Y O *D sg13cmos5l_nand2b_1
*CAP
1 *169:A 0
2 *181:A 8.5165e-05
3 *190:C 0
4 *166:Y 0.000238128
5 *16:17 0.000351299
6 *16:6 0.000504262
7 *16:6 *190:D 4.77702e-05
8 *16:6 *26:14 0.000186459
9 *16:6 *47:33 0.000241314
10 *16:6 *53:33 0
11 *16:17 *169:B 4.77153e-05
12 *16:17 *181:B 0
13 *16:17 *190:D 3.24458e-05
14 *16:17 *28:14 0
15 *16:17 *53:33 0
*RES
1 *166:Y *16:6 22.4823 
2 *16:6 *190:C 20 
3 *16:6 *16:17 2.5029 
4 *16:17 *181:A 20.8446 
5 *16:17 *169:A 20 
*END

*D_NET *17 0.00210538
*CONN
*I *169:B I *D sg13cmos5l_nor3_2
*I *190:D I *D sg13cmos5l_nor4_1
*I *181:B I *D sg13cmos5l_nor4_1
*I *167:X O *D sg13cmos5l_or2_2
*CAP
1 *169:B 0.000219909
2 *190:D 4.25262e-05
3 *181:B 0.000160898
4 *167:X 0.000172815
5 *17:25 0.000100679
6 *17:19 0.000375356
7 *17:8 0.000431006
8 *169:B *168:B 0
9 *169:B *23:21 0.000107089
10 *181:B *28:14 0
11 *190:D *32:12 8.0216e-05
12 *17:8 *23:21 7.55811e-05
13 *17:8 *43:23 0
14 *17:19 *23:21 0.000211376
15 *16:6 *190:D 4.77702e-05
16 *16:17 *169:B 4.77153e-05
17 *16:17 *181:B 0
18 *16:17 *190:D 3.24458e-05
*RES
1 *167:X *17:8 41.5862 
2 *17:8 *181:B 41.4008 
3 *17:8 *17:19 1.0918 
4 *17:19 *17:25 40.5356 
5 *17:25 *190:D 40.5356 
6 *17:19 *169:B 41.9982 
*END

*D_NET *18 0.00121412
*CONN
*I *169:C I *D sg13cmos5l_nor3_2
*I *181:C I *D sg13cmos5l_nor4_1
*I *168:Y O *D sg13cmos5l_nand3b_1
*CAP
1 *169:C 5.37975e-05
2 *181:C 0.000349983
3 *168:Y 0.000115586
4 *18:8 0.000519366
5 *169:C *19:12 4.77425e-05
6 *181:C *19:12 0
7 *181:C *19:16 0
8 *181:C *46:14 0.000127643
9 *18:8 *50:8 0
*RES
1 *168:Y *18:8 41.0918 
2 *18:8 *181:C 42.9973 
3 *18:8 *169:C 40.5356 
*END

*D_NET *19 0.00835816
*CONN
*I *170:C I *D sg13cmos5l_and3_1
*I *183:A2 I *D sg13cmos5l_a21oi_1
*I *185:A1 I *D sg13cmos5l_o21ai_1
*I *169:Y O *D sg13cmos5l_nor3_2
*CAP
1 *170:C 0.000121794
2 *183:A2 0
3 *185:A1 0
4 *169:Y 0.000105238
5 *19:45 0.000264356
6 *19:30 0.000518285
7 *19:28 0.000874819
8 *19:16 0.00168141
9 *19:12 0.00104397
10 *170:C *170:B 8.0194e-05
11 *170:C *44:6 0
12 *19:12 *64:12 0
13 *19:16 *170:B 0
14 *19:16 *181:D 0
15 *19:16 *44:54 0
16 *19:16 *46:14 0.000874241
17 *19:16 *47:16 0
18 *19:28 *27:8 0.000143932
19 *19:28 *27:27 0
20 *19:28 *44:6 0
21 *19:28 *57:20 0.00108607
22 *19:28 *66:18 0.000501142
23 *19:28 *66:31 0.000340949
24 *19:30 *185:A2 0.000241088
25 *19:30 *66:12 1.54008e-05
26 *19:30 *66:18 0
27 *19:45 *183:A1 1.54008e-05
28 *19:45 *185:A2 1.54008e-05
29 *19:45 *61:10 0
30 *19:45 *66:12 6.46834e-05
31 *169:C *19:12 4.77425e-05
32 *181:C *19:12 0
33 *181:C *19:16 0
34 *216:D *19:28 8.00842e-05
35 *15:14 *170:C 0.000194237
36 *15:14 *19:28 4.77201e-05
*RES
1 *169:Y *19:12 41.2051 
2 *19:12 *19:16 30.2382 
3 *19:16 *19:28 48.6314 
4 *19:28 *19:30 2.266 
5 *19:30 *185:A1 20 
6 *19:30 *19:45 42.4102 
7 *19:45 *183:A2 20 
8 *19:16 *170:C 21.4008 
*END

*D_NET *20 0.00951337
*CONN
*I *198:B I *D sg13cmos5l_nand2_1
*I *173:D I *D sg13cmos5l_nand4_1
*I *179:C I *D sg13cmos5l_nand3b_1
*I *196:A2 I *D sg13cmos5l_a221oi_1
*I *172:X O *D sg13cmos5l_and4_2
*CAP
1 *198:B 0.00019926
2 *173:D 9.99243e-05
3 *179:C 0.000477947
4 *196:A2 0.000209441
5 *172:X 0.000209739
6 *20:46 0.000948965
7 *20:25 0.00147295
8 *20:10 0.000764401
9 *173:D *173:C 0.000176411
10 *173:D *50:41 0.000176274
11 *179:C *166:A_N 0.000111839
12 *179:C *176:C 1.54008e-05
13 *179:C *23:6 0.000231809
14 *179:C *25:20 0.000176522
15 *179:C *26:14 1.54008e-05
16 *179:C *64:34 0
17 *196:A2 *167:A 0.00030564
18 *196:A2 *196:B1 0
19 *196:A2 *196:A1 8.00842e-05
20 *196:A2 *49:8 8.00521e-05
21 *198:B *200:B 0.000228256
22 *198:B *224:RESET_B 0
23 *198:B *39:12 4.78521e-05
24 *198:B *50:41 0
25 *20:10 *172:C 0
26 *20:10 *175:A 0.000234224
27 *20:10 *192:A 0.000234311
28 *20:10 *194:B 0.000209033
29 *20:10 *48:43 1.54008e-05
30 *20:25 *175:A 0.00034079
31 *20:25 *192:A 0.000478861
32 *20:25 *22:12 0
33 *20:25 *28:28 0.000288173
34 *20:25 *37:10 0
35 *20:25 *41:8 0
36 *20:25 *64:40 0.000340704
37 *20:46 *200:B 0
38 *20:46 *204:CLK 0.000341205
39 *20:46 *224:CLK 0.000607939
40 *20:46 *22:12 0.000394566
41 *20:46 *41:8 0
42 *20:46 *51:44 0
43 *20:46 *52:10 0
44 *20:46 *52:12 0
45 *20:46 *62:8 0
46 *204:D *179:C 0
*RES
1 *172:X *20:10 42.7089 
2 *20:10 *196:A2 42.1656 
3 *20:10 *20:25 5.5826 
4 *20:25 *179:C 45.1809 
5 *20:25 *20:46 7.8074 
6 *20:46 *173:D 41.1845 
7 *20:46 *198:B 42.2763 
*END

*D_NET *21 0.00244281
*CONN
*I *174:B I *D sg13cmos5l_xnor2_1
*I *173:Y O *D sg13cmos5l_nand4_1
*CAP
1 *174:B 0.000458355
2 *173:Y 0.000453171
3 *21:10 0.000911526
4 *174:B *43:17 0
5 *174:B *45:18 0.000305638
6 *21:10 *43:35 0
7 *21:10 *64:90 0.000154624
8 *3:9 *174:B 8.00842e-05
9 *6:10 *174:B 7.9407e-05
*RES
1 *173:Y *21:10 42.8634 
2 *21:10 *174:B 44.2127 
*END

*D_NET *22 0.00468755
*CONN
*I *177:A1 I *D sg13cmos5l_o21ai_1
*I *201:A2 I *D sg13cmos5l_o21ai_1
*I *202:C I *D sg13cmos5l_or3_1
*I *175:Y O *D sg13cmos5l_nand4_1
*CAP
1 *177:A1 0.00039078
2 *201:A2 0
3 *202:C 0.00012527
4 *175:Y 0
5 *22:27 0.000211038
6 *22:12 0.000850312
7 *22:4 0.000904784
8 *177:A1 *175:A 1.54446e-05
9 *177:A1 *177:B1 0
10 *177:A1 *182:A1 0
11 *177:A1 *182:B1 6.46834e-05
12 *177:A1 *196:C1 0
13 *177:A1 *28:14 0.000408134
14 *177:A1 *28:28 0.000144691
15 *202:C *201:B1 0
16 *202:C *202:A 0
17 *22:12 *166:B 0.000341293
18 *22:12 *201:B1 0
19 *22:12 *202:A 0
20 *22:12 *37:10 0.000340288
21 *22:12 *52:12 0.000159511
22 *22:12 *52:14 0.000159839
23 *22:27 *178:A 0
24 *22:27 *201:B1 0.000176921
25 *22:27 *202:B 0
26 *22:27 *25:8 0
27 *22:27 *41:8 0
28 *22:27 *62:8 0
29 *7:10 *22:12 0
30 *20:25 *22:12 0
31 *20:46 *22:12 0.000394566
*RES
1 *175:Y *22:4 20 
2 *22:4 *22:12 46.6641 
3 *22:12 *202:C 21.1845 
4 *22:12 *22:27 42.2763 
5 *22:27 *201:A2 20 
6 *22:4 *177:A1 24.017 
*END

*D_NET *23 0.00235411
*CONN
*I *177:A2 I *D sg13cmos5l_o21ai_1
*I *179:A_N I *D sg13cmos5l_nand3b_1
*I *176:Y O *D sg13cmos5l_nand4_1
*CAP
1 *177:A2 0
2 *179:A_N 0
3 *176:Y 0.00013512
4 *23:21 0.00027427
5 *23:6 0.000409391
6 *23:6 *176:D 0.000111551
7 *23:6 *53:18 0.000129499
8 *23:21 *25:26 0.000287672
9 *23:21 *32:12 7.68089e-05
10 *23:21 *43:23 0
11 *23:21 *53:18 1.54446e-05
12 *23:21 *54:39 0.000288502
13 *169:B *23:21 0.000107089
14 *179:C *23:6 0.000231809
15 *17:8 *23:21 7.55811e-05
16 *17:19 *23:21 0.000211376
*RES
1 *176:Y *23:6 21.6171 
2 *23:6 *179:A_N 20 
3 *23:6 *23:21 44.2024 
4 *23:21 *177:A2 20 
*END

*D_NET *24 0.000749867
*CONN
*I *182:A1 I *D sg13cmos5l_a21oi_1
*I *177:Y O *D sg13cmos5l_o21ai_1
*CAP
1 *182:A1 0.000294783
2 *177:Y 0.000294783
3 *182:A1 *177:B1 0.000144899
4 *182:A1 *182:A2 1.54008e-05
5 *177:A1 *182:A1 0
*RES
1 *177:Y *182:A1 42.7192 
*END

*D_NET *25 0.00335651
*CONN
*I *179:B I *D sg13cmos5l_nand3b_1
*I *190:B I *D sg13cmos5l_nor4_1
*I *178:Y O *D sg13cmos5l_inv_1
*CAP
1 *179:B 0
2 *190:B 0
3 *178:Y 0.000264694
4 *25:26 0.000117349
5 *25:20 0.000236775
6 *25:16 0.000973517
7 *25:8 0.00111879
8 *25:8 *178:A 0
9 *25:8 *201:B1 0
10 *25:16 *43:23 0
11 *25:16 *53:33 0.000181192
12 *25:16 *54:54 0
13 *25:20 *26:14 0
14 *25:26 *43:23 0
15 *179:C *25:20 0.000176522
16 *22:27 *25:8 0
17 *23:21 *25:26 0.000287672
*RES
1 *178:Y *25:8 42.4823 
2 *25:8 *25:16 45.8607 
3 *25:16 *25:20 21.1845 
4 *25:20 *25:26 41.339 
5 *25:26 *190:B 20 
6 *25:20 *179:B 20 
*END

*D_NET *26 0.001647
*CONN
*I *182:A2 I *D sg13cmos5l_a21oi_1
*I *179:Y O *D sg13cmos5l_nand3b_1
*CAP
1 *182:A2 6.61865e-05
2 *179:Y 0.000381929
3 *26:14 0.000448116
4 *182:A2 *46:22 4.77921e-05
5 *182:A2 *47:33 0.000112048
6 *26:14 *166:B 0.000112048
7 *26:14 *47:33 0
8 *26:14 *54:39 7.94972e-05
9 *26:14 *64:34 0
10 *179:C *26:14 1.54008e-05
11 *182:A1 *182:A2 1.54008e-05
12 *7:10 *26:14 0.000182121
13 *16:6 *26:14 0.000186459
14 *25:20 *26:14 0
*RES
1 *179:Y *26:14 44.0582 
2 *26:14 *182:A2 40.7519 
*END

*D_NET *27 0.00651287
*CONN
*I *181:D I *D sg13cmos5l_nor4_1
*I *185:A2 I *D sg13cmos5l_o21ai_1
*I *180:Y O *D sg13cmos5l_nand2b_1
*CAP
1 *181:D 0.000861191
2 *185:A2 0.000373883
3 *180:Y 0.000115441
4 *27:27 0.00119208
5 *27:8 0.000820212
6 *181:D *46:14 0.000660642
7 *185:A2 *185:B1 0.000241088
8 *185:A2 *216:RESET_B 0.000554273
9 *185:A2 *61:10 0.000926643
10 *27:27 *216:RESET_B 0.000234224
11 *27:27 *57:20 0
12 *27:27 *61:10 5.33604e-05
13 *210:D *27:8 7.9407e-05
14 *19:16 *181:D 0
15 *19:28 *27:8 0.000143932
16 *19:28 *27:27 0
17 *19:30 *185:A2 0.000241088
18 *19:45 *185:A2 1.54008e-05
*RES
1 *180:Y *27:8 41.1845 
2 *27:8 *185:A2 45.9225 
3 *27:8 *27:27 43.1415 
4 *27:27 *181:D 47.2718 
*END

*D_NET *28 0.00344417
*CONN
*I *182:B1 I *D sg13cmos5l_a21oi_1
*I *203:B1 I *D sg13cmos5l_a21oi_1
*I *181:Y O *D sg13cmos5l_nor4_1
*CAP
1 *182:B1 4.63923e-05
2 *203:B1 0
3 *181:Y 0.000604318
4 *28:28 0.000523026
5 *28:16 0.000569418
6 *28:14 0.000604318
7 *28:14 *196:C1 8.01938e-05
8 *28:14 *38:18 0
9 *28:28 *175:A 0
10 *28:28 *203:A2 0
11 *28:28 *46:22 0
12 *28:28 *47:33 1.54008e-05
13 *177:A1 *182:B1 6.46834e-05
14 *177:A1 *28:14 0.000408134
15 *177:A1 *28:28 0.000144691
16 *181:B *28:14 0
17 *204:D *28:28 0
18 *7:10 *182:B1 1.54008e-05
19 *7:10 *28:28 8.00231e-05
20 *16:17 *28:14 0
21 *20:25 *28:28 0.000288173
*RES
1 *181:Y *28:14 45.9122 
2 *28:14 *28:16 20 
3 *28:16 *28:28 45.356 
4 *28:28 *203:B1 20 
5 *28:16 *182:B1 20.5356 
*END

*D_NET *29 0.0030844
*CONN
*I *185:B1 I *D sg13cmos5l_o21ai_1
*I *184:Y O *D sg13cmos5l_nand2b_1
*CAP
1 *185:B1 0.000469389
2 *184:Y 0.00079908
3 *29:8 0.00126847
4 *185:B1 *183:A1 0
5 *185:B1 *71:12 0
6 *29:8 *189:A 0.00029097
7 *29:8 *30:10 0
8 *29:8 *65:42 0
9 *185:A2 *185:B1 0.000241088
10 *9:10 *185:B1 1.54008e-05
*RES
1 *184:Y *29:8 46.283 
2 *29:8 *185:B1 44.429 
*END

*D_NET *30 0.00142573
*CONN
*I *187:B I *D sg13cmos5l_xnor2_1
*I *186:Y O *D sg13cmos5l_nand2_1
*CAP
1 *187:B 0.000108606
2 *186:Y 0.000492293
3 *30:10 0.000600899
4 *187:B *71:12 0
5 *30:10 *187:A 0
6 *30:10 *65:31 0.000111968
7 *30:10 *66:52 0.000111968
8 *29:8 *30:10 0
*RES
1 *186:Y *30:10 44.5629 
2 *30:10 *187:B 40.9682 
*END

*D_NET *31 0.000722793
*CONN
*I *189:B I *D sg13cmos5l_xnor2_1
*I *188:Y O *D sg13cmos5l_nand3_1
*CAP
1 *189:B 0.000248943
2 *188:Y 0.000248943
3 *189:B *65:29 1.54008e-05
4 *189:B *65:31 0.000209505
5 *220:D *189:B 0
*RES
1 *188:Y *189:B 42.5956 
*END

*D_NET *32 0.0027391
*CONN
*I *197:A1 I *D sg13cmos5l_o21ai_1
*I *190:Y O *D sg13cmos5l_nor4_1
*CAP
1 *197:A1 0
2 *190:Y 0.000117343
3 *32:20 0.000590318
4 *32:12 0.000707661
5 *32:12 *43:23 0
6 *32:20 *33:8 0.000395396
7 *32:20 *44:54 0
8 *32:20 *46:22 0.000376788
9 *32:20 *64:117 0
10 *190:D *32:12 8.0216e-05
11 *15:29 *32:20 0.000394566
12 *23:21 *32:12 7.68089e-05
*RES
1 *190:Y *32:12 41.236 
2 *32:12 *32:20 48.0546 
3 *32:20 *197:A1 40 
*END

*D_NET *33 0.000767949
*CONN
*I *197:A2 I *D sg13cmos5l_o21ai_1
*I *191:Y O *D sg13cmos5l_nand2_1
*CAP
1 *197:A2 2.82463e-05
2 *191:Y 0.000134074
3 *33:8 0.00016232
4 *197:A2 *222:RESET_B 0
5 *197:A2 *38:18 4.79124e-05
6 *33:8 *44:54 0
7 *32:20 *33:8 0.000395396
*RES
1 *191:Y *33:8 42.0806 
2 *33:8 *197:A2 40.3193 
*END

*D_NET *34 0.00175727
*CONN
*I *196:A1 I *D sg13cmos5l_a221oi_1
*I *192:Y O *D sg13cmos5l_inv_1
*CAP
1 *196:A1 4.37077e-05
2 *192:Y 0.000350381
3 *34:8 0.000394088
4 *196:A1 *196:B1 8.00842e-05
5 *34:8 *189:A 0.000393512
6 *34:8 *49:12 0.000234224
7 *34:8 *49:14 0.000181192
8 *196:A2 *196:A1 8.00842e-05
*RES
1 *192:Y *34:8 43.5638 
2 *34:8 *196:A1 40.5356 
*END

*D_NET *35 0.00133152
*CONN
*I *196:B1 I *D sg13cmos5l_a221oi_1
*I *193:X O *D sg13cmos5l_and2_1
*CAP
1 *196:B1 0.000473873
2 *193:X 0.000473873
3 *196:B1 *167:A 0
4 *196:B1 *175:C 0
5 *196:B1 *175:D 0.000144089
6 *196:B1 *193:B 0
7 *196:B1 *194:A 0
8 *196:B1 *196:B2 0
9 *196:B1 *38:18 8.01938e-05
10 *196:B1 *49:8 7.94055e-05
11 *196:A1 *196:B1 8.00842e-05
12 *196:A2 *196:B1 0
*RES
1 *193:X *196:B1 44.6865 
*END

*D_NET *36 0.00213272
*CONN
*I *196:B2 I *D sg13cmos5l_a221oi_1
*I *194:Y O *D sg13cmos5l_nand2_1
*CAP
1 *196:B2 0.000127009
2 *194:Y 0.000294771
3 *36:10 0.00042178
4 *196:B2 *175:D 7.94055e-05
5 *196:B2 *196:C1 0.000177164
6 *196:B2 *38:18 8.01938e-05
7 *36:10 *167:A 0.000226457
8 *36:10 *175:B 0.000340375
9 *36:10 *194:A 7.95512e-05
10 *36:10 *194:B 0.000306019
11 *196:B1 *196:B2 0
*RES
1 *194:Y *36:10 43.6359 
2 *36:10 *196:B2 41.4008 
*END

*D_NET *37 0.00143592
*CONN
*I *196:C1 I *D sg13cmos5l_a221oi_1
*I *195:Y O *D sg13cmos5l_nor2b_1
*CAP
1 *196:C1 0.000111104
2 *195:Y 0.000167048
3 *37:10 0.000278152
4 *37:10 *175:B 0
5 *37:10 *47:33 4.77425e-05
6 *177:A1 *196:C1 0
7 *196:B2 *196:C1 0.000177164
8 *7:10 *37:10 0.000234224
9 *20:25 *37:10 0
10 *22:12 *37:10 0.000340288
11 *28:14 *196:C1 8.01938e-05
*RES
1 *195:Y *37:10 42.3999 
2 *37:10 *196:C1 41.1845 
*END

*D_NET *38 0.00293466
*CONN
*I *197:B1 I *D sg13cmos5l_o21ai_1
*I *196:Y O *D sg13cmos5l_a221oi_1
*CAP
1 *197:B1 0
2 *196:Y 0.00104533
3 *38:18 0.00104533
4 *38:18 *167:A 5.6983e-05
5 *38:18 *222:RESET_B 0.000177323
6 *38:18 *46:14 0
7 *38:18 *47:8 8.00842e-05
8 *38:18 *47:16 0.00024122
9 *38:18 *47:33 0
10 *38:18 *49:44 8.00842e-05
11 *196:B2 *38:18 8.01938e-05
12 *196:B1 *38:18 8.01938e-05
13 *197:A2 *38:18 4.79124e-05
14 *222:D *38:18 0
15 *28:14 *38:18 0
*RES
1 *196:Y *38:18 30.2132 
2 *38:18 *197:B1 20 
*END

*D_NET *39 0.00123621
*CONN
*I *199:B I *D sg13cmos5l_xnor2_1
*I *198:Y O *D sg13cmos5l_nand2_1
*CAP
1 *199:B 5.09204e-05
2 *198:Y 0.000385641
3 *39:12 0.000436561
4 *199:B *199:A 8.00842e-05
5 *39:12 *200:B 0
6 *39:12 *51:44 0
7 *39:12 *64:80 0.000235153
8 *198:B *39:12 4.78521e-05
*RES
1 *198:Y *39:12 43.2445 
2 *39:12 *199:B 40.5356 
*END

*D_NET *40 0.00209838
*CONN
*I *201:A1 I *D sg13cmos5l_o21ai_1
*I *202:B I *D sg13cmos5l_or3_1
*I *200:Y O *D sg13cmos5l_nand2_1
*CAP
1 *201:A1 0
2 *202:B 0.000175854
3 *200:Y 0.000523601
4 *40:10 0.000699455
5 *202:B *202:A 1.54008e-05
6 *202:B *203:A2 0
7 *202:B *41:8 0.000235556
8 *202:B *62:8 0
9 *40:10 *224:RESET_B 0
10 *40:10 *224:CLK 0
11 *40:10 *62:8 0
12 *13:10 *40:10 0.000448513
13 *22:27 *202:B 0
*RES
1 *200:Y *40:10 46.4169 
2 *40:10 *202:B 42.472 
3 *40:10 *201:A1 40 
*END

*D_NET *41 0.000751624
*CONN
*I *203:A1 I *D sg13cmos5l_a21oi_1
*I *201:Y O *D sg13cmos5l_o21ai_1
*CAP
1 *203:A1 0
2 *201:Y 0.000258034
3 *41:8 0.000258034
4 *41:8 *62:8 0
5 *202:B *41:8 0.000235556
6 *20:25 *41:8 0
7 *20:46 *41:8 0
8 *22:27 *41:8 0
*RES
1 *201:Y *41:8 43.3166 
2 *41:8 *203:A1 40 
*END

*D_NET *42 0.000301775
*CONN
*I *203:A2 I *D sg13cmos5l_a21oi_1
*I *202:X O *D sg13cmos5l_or3_1
*CAP
1 *203:A2 0.000150888
2 *202:X 0.000150888
3 *203:A2 *46:22 0
4 *202:B *203:A2 0
5 *28:28 *203:A2 0
*RES
1 *202:X *203:A2 41.8746 
*END

*D_NET *43 0.00565178
*CONN
*I *228:A I *D sg13cmos5l_buf_8
*I *227:A I *D sg13cmos5l_buf_8
*I *226:X O *D sg13cmos5l_buf_8
*CAP
1 *228:A 6.32666e-05
2 *227:A 0.000108815
3 *226:X 0.000178116
4 *43:35 0.0005855
5 *43:23 0.00178079
6 *43:17 0.00247569
7 *43:8 0.000459599
8 *227:A *44:32 0
9 *227:A *44:54 0
10 *227:A *46:14 0
11 *43:8 *55:17 0
12 *43:17 *45:18 0
13 *43:17 *55:10 0
14 *43:17 *55:17 0
15 *43:23 *220:CLK 0
16 *43:23 *44:32 0
17 *43:23 *46:14 0
18 *43:23 *47:16 0
19 *43:23 *47:33 0
20 *43:23 *49:44 0
21 *43:23 *53:18 0
22 *43:23 *54:14 0
23 *43:23 *54:39 0
24 *43:23 *57:14 0
25 *43:35 *64:90 0
26 *174:B *43:17 0
27 *6:10 *43:35 0
28 *17:8 *43:23 0
29 *21:10 *43:35 0
30 *23:21 *43:23 0
31 *25:16 *43:23 0
32 *25:26 *43:23 0
33 *32:12 *43:23 0
*RES
1 *226:X *43:8 21.9364 
2 *43:8 *43:17 22.4926 
3 *43:17 *43:23 34.2964 
4 *43:23 *227:A 20.9682 
5 *43:17 *43:35 4.3054 
6 *43:35 *228:A 40.5356 
*END

*D_NET *44 0.00525003
*CONN
*I *222:CLK I *D sg13cmos5l_dfrbpq_1
*I *220:CLK I *D sg13cmos5l_dfrbpq_1
*I *216:CLK I *D sg13cmos5l_dfrbpq_1
*I *214:CLK I *D sg13cmos5l_dfrbpq_1
*I *210:CLK I *D sg13cmos5l_dfrbpq_1
*I *218:CLK I *D sg13cmos5l_dfrbpq_1
*I *227:X O *D sg13cmos5l_buf_8
*CAP
1 *222:CLK 0
2 *220:CLK 0.000487312
3 *216:CLK 3.79495e-05
4 *214:CLK 0.000155629
5 *210:CLK 0
6 *218:CLK 0.000557404
7 *227:X 0
8 *44:54 0.000394971
9 *44:32 0.000655542
10 *44:30 0.000525251
11 *44:6 0.000921748
12 *44:4 0.000519973
13 *218:CLK *184:B 0.000273639
14 *218:CLK *192:A 0
15 *218:CLK *218:RESET_B 0
16 *220:CLK *172:A 0
17 *220:CLK *192:A 0.00027343
18 *220:CLK *47:33 0
19 *220:CLK *49:44 0
20 *44:6 *170:B 0
21 *44:6 *216:RESET_B 0
22 *44:54 *46:33 0
23 *44:54 *47:16 0.000447183
24 *44:54 *64:117 0
25 *170:C *44:6 0
26 *220:D *218:CLK 0
27 *227:A *44:32 0
28 *227:A *44:54 0
29 *15:14 *214:CLK 0
30 *15:14 *44:6 0
31 *15:29 *214:CLK 0
32 *15:29 *44:54 0
33 *19:16 *44:54 0
34 *19:28 *44:6 0
35 *32:20 *44:54 0
36 *33:8 *44:54 0
37 *43:23 *220:CLK 0
38 *43:23 *44:32 0
*RES
1 *227:X *44:4 20 
2 *44:4 *44:6 3.0159 
3 *44:6 *218:CLK 26.1594 
4 *44:6 *210:CLK 20 
5 *44:4 *214:CLK 21.6171 
6 *227:X *44:30 20 
7 *44:30 *44:32 1.8334 
8 *44:32 *216:CLK 20.3502 
9 *44:32 *220:CLK 25.7268 
10 *44:30 *44:54 45.3354 
11 *44:54 *222:CLK 20 
*END

*D_NET *45 0.0074846
*CONN
*I *229:A I *D sg13cmos5l_inv_1
*I *171:A I *D sg13cmos5l_inv_1
*I *206:CLK I *D sg13cmos5l_dfrbpq_1
*I *208:CLK I *D sg13cmos5l_dfrbpq_1
*I *224:CLK I *D sg13cmos5l_dfrbpq_1
*I *204:CLK I *D sg13cmos5l_dfrbpq_1
*I *228:X O *D sg13cmos5l_buf_8
*CAP
1 *229:A 0.000211986
2 *171:A 0.000386105
3 *206:CLK 5.61002e-05
4 *208:CLK 0.000203171
5 *224:CLK 0.000459897
6 *204:CLK 0.000137393
7 *228:X 0.00041456
8 *45:18 0.0012432
9 *45:14 0.0011814
10 *45:10 0.000619445
11 *45:8 0.000819703
12 *171:A *60:8 0
13 *204:CLK *62:8 0
14 *206:CLK *50:41 8.00842e-05
15 *208:CLK *208:RESET_B 0
16 *208:CLK *212:RESET_B 0
17 *208:CLK *53:6 0
18 *224:CLK *224:RESET_B 0
19 *224:CLK *50:41 1.54008e-05
20 *224:CLK *62:8 0
21 *229:A *64:90 0
22 *45:8 *206:RESET_B 8.00842e-05
23 *45:8 *50:41 0
24 *45:10 *60:8 0
25 *45:14 *50:41 0
26 *45:18 *178:A 0.000144735
27 *45:18 *212:RESET_B 0
28 *45:18 *51:14 0.00017656
29 *45:18 *64:90 0
30 *174:B *45:18 0.000305638
31 *206:D *45:8 0
32 *13:10 *224:CLK 0
33 *20:46 *204:CLK 0.000341205
34 *20:46 *224:CLK 0.000607939
35 *40:10 *224:CLK 0
36 *43:17 *45:18 0
*RES
1 *228:X *45:8 41.8334 
2 *45:8 *45:10 2.0806 
3 *45:10 *45:14 22.8222 
4 *45:14 *45:18 26.1594 
5 *45:18 *204:CLK 41.5862 
6 *45:18 *224:CLK 45.0882 
7 *45:14 *208:CLK 22.1836 
8 *45:10 *206:CLK 40.5356 
9 *45:8 *171:A 43.3578 
10 *228:X *229:A 42.0703 
*END

*D_NET *46 0.00778052
*CONN
*I *232:A I *D sg13cmos5l_buf_1
*I *193:A I *D sg13cmos5l_and2_1
*I *214:Q O *D sg13cmos5l_dfrbpq_1
*CAP
1 *232:A 0.000176062
2 *193:A 0
3 *214:Q 2.79904e-05
4 *46:33 0.000940572
5 *46:22 0.000851191
6 *46:14 0.00137104
7 *46:6 0.00131235
8 *232:A *59:10 0
9 *46:14 *47:16 0
10 *46:22 *193:B 0.000274693
11 *46:22 *47:33 0
12 *46:33 *47:16 0
13 *46:33 *59:10 0
14 *46:33 *65:78 0
15 *181:C *46:14 0.000127643
16 *181:D *46:14 0.000660642
17 *182:A2 *46:22 4.77921e-05
18 *203:A2 *46:22 0
19 *222:D *46:6 0
20 *222:D *46:14 0
21 *227:A *46:14 0
22 *7:10 *46:22 7.9703e-05
23 *8:10 *46:33 0.000659813
24 *15:29 *46:33 0
25 *19:16 *46:14 0.000874241
26 *28:28 *46:22 0
27 *32:20 *46:22 0.000376788
28 *38:18 *46:14 0
29 *43:23 *46:14 0
30 *44:54 *46:33 0
*RES
1 *214:Q *46:6 20.3502 
2 *46:6 *46:14 46.9731 
3 *46:14 *46:22 49.0743 
4 *46:22 *193:A 20 
5 *46:6 *46:33 49.0022 
6 *46:33 *232:A 21.6171 
*END

*D_NET *47 0.0065329
*CONN
*I *195:A I *D sg13cmos5l_nor2b_1
*I *231:A I *D sg13cmos5l_buf_1
*I *216:Q O *D sg13cmos5l_dfrbpq_1
*CAP
1 *195:A 0
2 *231:A 0
3 *216:Q 0.000107395
4 *47:33 0.00117687
5 *47:16 0.000831798
6 *47:8 0.00211606
7 *47:8 *167:A 0
8 *47:16 *170:B 0.000234224
9 *47:16 *65:78 0.00034112
10 *47:33 *167:A 0.000176665
11 *47:33 *49:44 0.00012816
12 *47:33 *54:39 0.000235612
13 *47:33 *57:14 0
14 *182:A2 *47:33 0.000112048
15 *220:CLK *47:33 0
16 *16:6 *47:33 0.000241314
17 *19:16 *47:16 0
18 *26:14 *47:33 0
19 *28:28 *47:33 1.54008e-05
20 *37:10 *47:33 4.77425e-05
21 *38:18 *47:8 8.00842e-05
22 *38:18 *47:16 0.00024122
23 *38:18 *47:33 0
24 *43:23 *47:16 0
25 *43:23 *47:33 0
26 *44:54 *47:16 0.000447183
27 *46:14 *47:16 0
28 *46:22 *47:33 0
29 *46:33 *47:16 0
*RES
1 *216:Q *47:8 21.133 
2 *47:8 *47:16 30.4133 
3 *47:16 *231:A 40 
4 *47:8 *47:33 49.3936 
5 *47:33 *195:A 20 
*END

*D_NET *48 0.00789437
*CONN
*I *172:C I *D sg13cmos5l_and4_2
*I *188:C I *D sg13cmos5l_nand3_1
*I *187:A I *D sg13cmos5l_xnor2_1
*I *175:C I *D sg13cmos5l_nand4_1
*I *167:A I *D sg13cmos5l_or2_2
*I *194:A I *D sg13cmos5l_nand2_1
*I *218:Q O *D sg13cmos5l_dfrbpq_1
*CAP
1 *172:C 0.000193353
2 *188:C 3.18292e-05
3 *187:A 0.000352573
4 *175:C 0.000273027
5 *167:A 0.000526045
6 *194:A 0.000118466
7 *218:Q 6.62696e-05
8 *48:47 0.000640349
9 *48:43 0.000606725
10 *48:12 0.000644511
11 *48:10 0.000384793
12 *48:6 0.00033546
13 *167:A *194:B 0
14 *167:A *49:44 8.00842e-05
15 *172:C *172:B 0.000241088
16 *172:C *49:29 0.000111839
17 *175:C *175:D 1.54008e-05
18 *175:C *192:A 0
19 *175:C *193:B 0
20 *187:A *66:52 7.52149e-05
21 *187:A *70:8 0.000341707
22 *187:A *71:12 0
23 *188:C *188:B 1.54008e-05
24 *188:C *66:52 1.54008e-05
25 *194:A *193:B 0
26 *194:A *194:B 0
27 *48:6 *194:B 0
28 *48:43 *194:B 0
29 *48:47 *175:A 0.000106392
30 *48:47 *192:A 0.000289003
31 *48:47 *66:52 0.00018211
32 *48:47 *66:61 0.00053281
33 *48:47 *66:72 0.000373299
34 *48:47 *70:8 0.00048052
35 *196:B1 *167:A 0
36 *196:B1 *175:C 0
37 *196:B1 *194:A 0
38 *196:A2 *167:A 0.00030564
39 *20:10 *172:C 0
40 *20:10 *48:43 1.54008e-05
41 *30:10 *187:A 0
42 *36:10 *167:A 0.000226457
43 *36:10 *194:A 7.95512e-05
44 *38:18 *167:A 5.6983e-05
45 *47:8 *167:A 0
46 *47:33 *167:A 0.000176665
*RES
1 *218:Q *48:6 20.5356 
2 *48:6 *48:10 21.0918 
3 *48:10 *48:12 20 
4 *48:12 *194:A 21.1845 
5 *48:12 *167:A 25.4281 
6 *48:10 *175:C 42.5235 
7 *48:6 *48:43 1.5656 
8 *48:43 *48:47 25.5414 
9 *48:47 *187:A 43.9349 
10 *48:47 *188:C 40.3193 
11 *48:43 *172:C 22.0497 
*END

*D_NET *49 0.00559922
*CONN
*I *175:D I *D sg13cmos5l_nand4_1
*I *194:B I *D sg13cmos5l_nand2_1
*I *167:B I *D sg13cmos5l_or2_2
*I *172:D I *D sg13cmos5l_and4_2
*I *189:A I *D sg13cmos5l_xnor2_1
*I *220:Q O *D sg13cmos5l_dfrbpq_1
*CAP
1 *175:D 0.000153812
2 *194:B 0.000341585
3 *167:B 0
4 *172:D 0
5 *189:A 0.000430446
6 *220:Q 4.51715e-05
7 *49:44 0.00036773
8 *49:29 0.000445636
9 *49:14 0.000562836
10 *49:12 0.00049395
11 *49:8 0.000296865
12 *189:A *175:B 0
13 *189:A *65:42 0
14 *189:A *65:53 0
15 *49:14 *175:B 0
16 *167:A *194:B 0
17 *167:A *49:44 8.00842e-05
18 *172:C *49:29 0.000111839
19 *175:C *175:D 1.54008e-05
20 *194:A *194:B 0
21 *196:B2 *175:D 7.94055e-05
22 *196:B1 *175:D 0.000144089
23 *196:B1 *49:8 7.94055e-05
24 *196:A2 *49:8 8.00521e-05
25 *220:D *189:A 4.77154e-05
26 *220:CLK *49:44 0
27 *20:10 *194:B 0.000209033
28 *29:8 *189:A 0.00029097
29 *34:8 *189:A 0.000393512
30 *34:8 *49:12 0.000234224
31 *34:8 *49:14 0.000181192
32 *36:10 *194:B 0.000306019
33 *38:18 *49:44 8.00842e-05
34 *43:23 *49:44 0
35 *47:33 *49:44 0.00012816
36 *48:6 *194:B 0
37 *48:43 *194:B 0
*RES
1 *220:Q *49:8 40.5356 
2 *49:8 *49:12 1.4111 
3 *49:12 *49:14 0.8446 
4 *49:14 *189:A 44.6877 
5 *49:14 *49:29 20.7519 
6 *49:29 *172:D 20 
7 *49:29 *49:44 43.5226 
8 *49:44 *167:B 20 
9 *49:12 *194:B 43.3475 
10 *49:8 *175:D 41.5656 
*END

*D_NET *50 0.00435989
*CONN
*I *200:A I *D sg13cmos5l_nand2_1
*I *230:A I *D sg13cmos5l_buf_1
*I *222:Q O *D sg13cmos5l_dfrbpq_1
*CAP
1 *200:A 0
2 *230:A 0.000301678
3 *222:Q 0.000163449
4 *50:41 0.00127734
5 *50:8 0.00174247
6 *230:A *208:RESET_B 0
7 *230:A *64:12 0
8 *50:8 *64:117 0
9 *50:41 *200:B 0
10 *50:41 *206:RESET_B 0
11 *50:41 *53:51 0
12 *50:41 *54:12 0
13 *50:41 *60:8 0.000287672
14 *50:41 *64:90 0.000202852
15 *173:D *50:41 0.000176274
16 *198:B *50:41 0
17 *206:CLK *50:41 8.00842e-05
18 *208:D *230:A 0.000112667
19 *224:CLK *50:41 1.54008e-05
20 *18:8 *50:8 0
21 *45:8 *50:41 0
22 *45:14 *50:41 0
*RES
1 *222:Q *50:8 41.8334 
2 *50:8 *230:A 43.0488 
3 *50:8 *50:41 33.8844 
4 *50:41 *200:A 20 
*END

*D_NET *51 0.00653591
*CONN
*I *199:A I *D sg13cmos5l_xnor2_1
*I *200:B I *D sg13cmos5l_nand2_1
*I *173:B I *D sg13cmos5l_nand4_1
*I *176:B I *D sg13cmos5l_nand4_1
*I *166:A_N I *D sg13cmos5l_nand2b_1
*I *224:Q O *D sg13cmos5l_dfrbpq_1
*CAP
1 *199:A 0.000130672
2 *200:B 0.000228759
3 *173:B 7.17142e-05
4 *176:B 5.9923e-05
5 *166:A_N 0.00014035
6 *224:Q 0.000422496
7 *51:44 0.000455826
8 *51:18 0.000530731
9 *51:16 0.00048581
10 *51:14 0.000553168
11 *166:A_N *166:B 0
12 *166:A_N *64:24 5.30319e-05
13 *166:A_N *64:34 0.000175876
14 *173:B *173:C 8.0057e-05
15 *173:B *173:A 4.77154e-05
16 *176:B *176:C 7.94972e-05
17 *200:B *224:RESET_B 0
18 *51:14 *178:A 0.00023195
19 *51:18 *52:10 0
20 *51:18 *52:12 0
21 *51:18 *64:24 0.000236276
22 *51:18 *64:80 0.000804388
23 *51:44 *52:10 0.000288087
24 *51:44 *64:80 0.000305637
25 *179:C *166:A_N 0.000111839
26 *198:B *200:B 0.000228256
27 *199:B *199:A 8.00842e-05
28 *204:D *166:A_N 0
29 *7:10 *166:A_N 0.000182121
30 *7:10 *51:18 0.000375083
31 *13:10 *51:14 0
32 *20:46 *200:B 0
33 *20:46 *51:44 0
34 *39:12 *200:B 0
35 *39:12 *51:44 0
36 *45:18 *51:14 0.00017656
37 *50:41 *200:B 0
*RES
1 *224:Q *51:14 24.1321 
2 *51:14 *51:16 20 
3 *51:16 *51:18 4.7998 
4 *51:18 *166:A_N 41.9467 
5 *51:18 *176:B 40.5356 
6 *51:16 *51:44 2.3999 
7 *51:44 *173:B 40.8549 
8 *51:44 *200:B 42.3072 
9 *51:14 *199:A 21.1021 
*END

*D_NET *52 0.00593798
*CONN
*I *173:C I *D sg13cmos5l_nand4_1
*I *201:B1 I *D sg13cmos5l_o21ai_1
*I *202:A I *D sg13cmos5l_or3_1
*I *176:C I *D sg13cmos5l_nand4_1
*I *166:B I *D sg13cmos5l_nand2b_1
*I *204:Q O *D sg13cmos5l_dfrbpq_1
*CAP
1 *173:C 0.000205848
2 *201:B1 0.000292086
3 *202:A 0.000275939
4 *176:C 0.000134185
5 *166:B 0.000186702
6 *204:Q 2.74242e-05
7 *52:14 0.000352687
8 *52:12 0.000436983
9 *52:10 0.00082534
10 *52:6 0.000637282
11 *166:B *64:34 0.000111667
12 *173:C *173:A 0
13 *176:C *176:D 1.54008e-05
14 *202:A *204:RESET_B 8.0216e-05
15 *202:A *64:34 0
16 *166:A_N *166:B 0
17 *173:B *173:C 8.0057e-05
18 *173:D *173:C 0.000176411
19 *176:B *176:C 7.94972e-05
20 *179:C *176:C 1.54008e-05
21 *202:B *202:A 1.54008e-05
22 *202:C *201:B1 0
23 *202:C *202:A 0
24 *204:D *202:A 0
25 *7:10 *166:B 0.000340288
26 *7:10 *52:12 0.00018211
27 *7:10 *52:14 0.000181608
28 *13:10 *52:6 4.77425e-05
29 *20:46 *52:10 0
30 *20:46 *52:12 0
31 *22:12 *166:B 0.000341293
32 *22:12 *201:B1 0
33 *22:12 *202:A 0
34 *22:12 *52:12 0.000159511
35 *22:12 *52:14 0.000159839
36 *22:27 *201:B1 0.000176921
37 *25:8 *201:B1 0
38 *26:14 *166:B 0.000112048
39 *51:18 *52:10 0
40 *51:18 *52:12 0
41 *51:44 *52:10 0.000288087
*RES
1 *204:Q *52:6 20.3193 
2 *52:6 *52:10 23.5638 
3 *52:10 *52:12 1.5862 
4 *52:12 *52:14 0.8446 
5 *52:14 *166:B 42.7707 
6 *52:14 *176:C 41.1845 
7 *52:12 *202:A 42.8181 
8 *52:10 *201:B1 42.9149 
9 *52:6 *173:C 22.2763 
*END

*D_NET *53 0.00414704
*CONN
*I *168:A_N I *D sg13cmos5l_nand3b_1
*I *174:A I *D sg13cmos5l_xnor2_1
*I *190:A I *D sg13cmos5l_nor4_1
*I *176:D I *D sg13cmos5l_nand4_1
*I *206:Q O *D sg13cmos5l_dfrbpq_1
*CAP
1 *168:A_N 0
2 *174:A 0
3 *190:A 0
4 *176:D 0.000146405
5 *206:Q 0.000139682
6 *53:51 0.000275899
7 *53:33 0.000298428
8 *53:18 0.000970946
9 *53:8 0.000577894
10 *53:6 0.000467361
11 *53:18 *54:14 0.000500109
12 *53:33 *54:39 0.000220088
13 *53:51 *64:12 8.0194e-05
14 *53:51 *64:20 1.54008e-05
15 *176:C *176:D 1.54008e-05
16 *208:D *53:18 0
17 *208:D *53:51 1.54008e-06
18 *208:CLK *53:6 0
19 *6:10 *53:18 0
20 *16:6 *53:33 0
21 *16:17 *53:33 0
22 *23:6 *176:D 0.000111551
23 *23:6 *53:18 0.000129499
24 *23:21 *53:18 1.54446e-05
25 *25:16 *53:33 0.000181192
26 *43:23 *53:18 0
27 *50:41 *53:51 0
*RES
1 *206:Q *53:6 21.339 
2 *53:6 *53:8 0.5356 
3 *53:8 *53:18 45.3766 
4 *53:18 *176:D 21.0312 
5 *53:18 *53:33 42.8016 
6 *53:33 *190:A 20 
7 *53:8 *174:A 20 
8 *53:6 *53:51 42.369 
9 *53:51 *168:A_N 20 
*END

*D_NET *54 0.00805537
*CONN
*I *178:A I *D sg13cmos5l_inv_1
*I *177:B1 I *D sg13cmos5l_o21ai_1
*I *168:B I *D sg13cmos5l_nand3b_1
*I *208:Q O *D sg13cmos5l_dfrbpq_1
*CAP
1 *178:A 0.000347358
2 *177:B1 9.8447e-05
3 *168:B 0.000159597
4 *208:Q 0.000531304
5 *54:54 0.000661245
6 *54:39 0.000733084
7 *54:14 0.00106173
8 *54:12 0.00111268
9 *168:B *64:20 0.000208615
10 *54:12 *212:RESET_B 0
11 *169:B *168:B 0
12 *177:A1 *177:B1 0
13 *182:A1 *177:B1 0.000144899
14 *3:9 *54:12 0.000555923
15 *3:9 *54:14 7.65627e-05
16 *6:10 *54:12 0.000533834
17 *6:10 *54:14 0.000129595
18 *7:16 *54:54 0
19 *22:27 *178:A 0
20 *23:21 *54:39 0.000288502
21 *25:8 *178:A 0
22 *25:16 *54:54 0
23 *26:14 *54:39 7.94972e-05
24 *43:23 *54:14 0
25 *43:23 *54:39 0
26 *45:18 *178:A 0.000144735
27 *47:33 *54:39 0.000235612
28 *50:41 *54:12 0
29 *51:14 *178:A 0.00023195
30 *53:18 *54:14 0.000500109
31 *53:33 *54:39 0.000220088
*RES
1 *208:Q *54:12 46.3036 
2 *54:12 *54:14 3.5638 
3 *54:14 *168:B 41.6171 
4 *54:14 *54:39 46.2727 
5 *54:39 *177:B1 40.9682 
6 *54:12 *54:54 43.3475 
7 *54:54 *178:A 43.7286 
*END

*D_NET *55 0.000949682
*CONN
*I *226:A I *D sg13cmos5l_buf_8
*I *212:Q O *D sg13cmos5l_dfrbpq_1
*CAP
1 *226:A 0.000101343
2 *212:Q 0.000172267
3 *55:17 0.000302574
4 *55:10 0.000373498
5 *43:8 *55:17 0
6 *43:17 *55:10 0
7 *43:17 *55:17 0
*RES
1 *212:Q *55:10 21.8231 
2 *55:10 *55:17 2.1527 
3 *55:17 *226:A 20.8137 
*END

*D_NET *56 0.000904519
*CONN
*I *224:RESET_B I *D sg13cmos5l_dfrbpq_1
*I *225:L_HI O *D sg13cmos5l_tiehi
*CAP
1 *224:RESET_B 0.00045226
2 *225:L_HI 0.00045226
3 *198:B *224:RESET_B 0
4 *200:B *224:RESET_B 0
5 *224:D *224:RESET_B 0
6 *224:CLK *224:RESET_B 0
7 *40:10 *224:RESET_B 0
*RES
1 *225:L_HI *224:RESET_B 43.8552 
*END

*D_NET *57 0.00498
*CONN
*I *233:A I *D sg13cmos5l_buf_1
*I *210:Q O *D sg13cmos5l_dfrbpq_1
*CAP
1 *233:A 0
2 *210:Q 0.000471843
3 *57:20 0.000772534
4 *57:14 0.00124438
5 *57:14 *216:RESET_B 0
6 *57:20 *183:A1 0
7 *57:20 *216:RESET_B 0
8 *57:20 *61:10 0.00140518
9 *57:20 *66:18 0
10 clk_out *57:20 0
11 *19:28 *57:20 0.00108607
12 *27:27 *57:20 0
13 *43:23 *57:14 0
14 *47:33 *57:14 0
*RES
1 *210:Q *57:14 45.047 
2 *57:14 *57:20 31.021 
3 *57:20 *233:A 20 
*END

*D_NET *58 0.00365469
*CONN
*I *216:RESET_B I *D sg13cmos5l_dfrbpq_1
*I *217:L_HI O *D sg13cmos5l_tiehi
*CAP
1 *216:RESET_B 0.000554403
2 *217:L_HI 0.000774384
3 *58:14 0.00132879
4 *58:14 *165:A 0.000208615
5 *185:A2 *216:RESET_B 0.000554273
6 *27:27 *216:RESET_B 0.000234224
7 *44:6 *216:RESET_B 0
8 *57:14 *216:RESET_B 0
9 *57:20 *216:RESET_B 0
*RES
1 *217:L_HI *58:14 46.5302 
2 *58:14 *216:RESET_B 45.459 
*END

*D_NET *59 0.00229656
*CONN
*I *214:RESET_B I *D sg13cmos5l_dfrbpq_1
*I *215:L_HI O *D sg13cmos5l_tiehi
*CAP
1 *214:RESET_B 0
2 *215:L_HI 0.000557928
3 *59:10 0.000557928
4 *232:A *59:10 0
5 *8:10 *59:10 0.0011807
6 *46:33 *59:10 0
*RES
1 *215:L_HI *59:10 47.313 
2 *59:10 *214:RESET_B 40 
*END

*D_NET *60 0.00172405
*CONN
*I *212:RESET_B I *D sg13cmos5l_dfrbpq_1
*I *213:L_HI O *D sg13cmos5l_tiehi
*CAP
1 *212:RESET_B 0.000429312
2 *213:L_HI 0.000288878
3 *60:8 0.00071819
4 *171:A *60:8 0
5 *208:CLK *212:RESET_B 0
6 *45:10 *60:8 0
7 *45:18 *212:RESET_B 0
8 *50:41 *60:8 0.000287672
9 *54:12 *212:RESET_B 0
*RES
1 *213:L_HI *60:8 43.811 
2 *60:8 *212:RESET_B 43.5638 
*END

*D_NET *61 0.00353203
*CONN
*I *210:RESET_B I *D sg13cmos5l_dfrbpq_1
*I *211:L_HI O *D sg13cmos5l_tiehi
*CAP
1 *210:RESET_B 0
2 *211:L_HI 0.000573424
3 *61:10 0.000573424
4 *61:10 *183:A1 0
5 *185:A2 *61:10 0.000926643
6 *19:45 *61:10 0
7 *27:27 *61:10 5.33604e-05
8 *57:20 *61:10 0.00140518
*RES
1 *211:L_HI *61:10 48.7962 
2 *61:10 *210:RESET_B 40 
*END

*D_NET *62 0.00139193
*CONN
*I *204:RESET_B I *D sg13cmos5l_dfrbpq_1
*I *205:L_HI O *D sg13cmos5l_tiehi
*CAP
1 *204:RESET_B 4.60663e-05
2 *205:L_HI 0.00060979
3 *62:8 0.000655857
4 *202:A *204:RESET_B 8.0216e-05
5 *202:B *62:8 0
6 *204:D *204:RESET_B 0
7 *204:CLK *62:8 0
8 *224:CLK *62:8 0
9 *13:10 *62:8 0
10 *20:46 *62:8 0
11 *22:27 *62:8 0
12 *40:10 *62:8 0
13 *41:8 *62:8 0
*RES
1 *205:L_HI *62:8 45.7886 
2 *62:8 *204:RESET_B 40.5356 
*END

*D_NET *63 0.0026133
*CONN
*I *212:D I *D sg13cmos5l_dfrbpq_1
*I *171:Y O *D sg13cmos5l_inv_1
*CAP
1 *212:D 0
2 *171:Y 0.000405496
3 *63:10 0.000405496
4 *3:9 *63:10 0.00108739
5 *6:10 *63:10 0.000714918
*RES
1 *171:Y *63:10 46.2315 
2 *63:10 *212:D 40 
*END

*D_NET *64 0.0119682
*CONN
*I *191:B I *D sg13cmos5l_nand2_1
*I *168:C I *D sg13cmos5l_nand3b_1
*I *173:A I *D sg13cmos5l_nand4_1
*I *198:A I *D sg13cmos5l_nand2_1
*I *176:A I *D sg13cmos5l_nand4_1
*I *195:B_N I *D sg13cmos5l_nor2b_1
*I *193:B I *D sg13cmos5l_and2_1
*I *192:A I *D sg13cmos5l_inv_1
*I *230:X O *D sg13cmos5l_buf_1
*CAP
1 *191:B 0
2 *168:C 0
3 *173:A 6.27848e-05
4 *198:A 0
5 *176:A 0
6 *195:B_N 0
7 *193:B 0.000159783
8 *192:A 0.000611676
9 *230:X 0
10 *64:117 0.00039421
11 *64:90 0.000548195
12 *64:80 0.00109011
13 *64:40 0.000932854
14 *64:34 0.000421412
15 *64:24 0.000388479
16 *64:22 0.000607591
17 *64:20 0.000438373
18 *64:12 0.000858377
19 *64:4 0.000814214
20 *192:A *175:A 0
21 *192:A *184:A_N 0
22 *64:117 *222:RESET_B 0
23 *166:B *64:34 0.000111667
24 *166:A_N *64:24 5.30319e-05
25 *166:A_N *64:34 0.000175876
26 *168:B *64:20 0.000208615
27 *173:B *173:A 4.77154e-05
28 *173:C *173:A 0
29 *175:C *192:A 0
30 *175:C *193:B 0
31 *179:C *64:34 0
32 *194:A *193:B 0
33 *196:B1 *193:B 0
34 *202:A *64:34 0
35 *204:D *64:34 3.76204e-05
36 *204:D *64:40 8.01283e-05
37 *208:D *64:12 0
38 *208:D *64:20 0
39 *218:CLK *192:A 0
40 *220:CLK *192:A 0.00027343
41 *229:A *64:90 0
42 *230:A *64:12 0
43 *7:16 *64:20 0
44 *19:12 *64:12 0
45 *20:10 *192:A 0.000234311
46 *20:25 *192:A 0.000478861
47 *20:25 *64:40 0.000340704
48 *21:10 *64:90 0.000154624
49 *26:14 *64:34 0
50 *32:20 *64:117 0
51 *39:12 *64:80 0.000235153
52 *43:35 *64:90 0
53 *44:54 *64:117 0
54 *45:18 *64:90 0
55 *46:22 *193:B 0.000274693
56 *48:47 *192:A 0.000289003
57 *50:8 *64:117 0
58 *50:41 *64:90 0.000202852
59 *51:18 *64:24 0.000236276
60 *51:18 *64:80 0.000804388
61 *51:44 *64:80 0.000305637
62 *53:51 *64:12 8.0194e-05
63 *53:51 *64:20 1.54008e-05
*RES
1 *230:X *64:4 20 
2 *64:4 *64:12 4.3672 
3 *64:12 *64:20 44.532 
4 *64:20 *64:22 20 
5 *64:22 *64:24 1.339 
6 *64:24 *64:34 22.5138 
7 *64:34 *64:40 22.1218 
8 *64:40 *192:A 47.5602 
9 *64:40 *193:B 41.8334 
10 *64:34 *195:B_N 20 
11 *64:24 *176:A 40 
12 *64:22 *64:80 25.7165 
13 *64:80 *64:90 45.0367 
14 *64:90 *198:A 20 
15 *64:80 *173:A 20.6695 
16 *64:12 *168:C 20 
17 *64:4 *64:117 44.5938 
18 *64:117 *191:B 20 
*END

*D_NET *65 0.0107829
*CONN
*I *170:B I *D sg13cmos5l_and3_1
*I *180:B I *D sg13cmos5l_nand2b_1
*I *186:B I *D sg13cmos5l_nand2_1
*I *175:B I *D sg13cmos5l_nand4_1
*I *172:B I *D sg13cmos5l_and4_2
*I *184:A_N I *D sg13cmos5l_nand2b_1
*I *188:B I *D sg13cmos5l_nand3_1
*I *183:A1 I *D sg13cmos5l_a21oi_1
*I *231:X O *D sg13cmos5l_buf_1
*CAP
1 *170:B 0.000119347
2 *180:B 0.000176798
3 *186:B 0
4 *175:B 0.000187087
5 *172:B 0.000134297
6 *184:A_N 0.0001569
7 *188:B 3.48448e-05
8 *183:A1 0.00059485
9 *231:X 0
10 *65:78 0.000445019
11 *65:53 0.000451293
12 *65:42 0.000511529
13 *65:31 0.000413705
14 *65:29 0.000529435
15 *65:12 0.0013552
16 *65:6 0.000533924
17 *172:B *172:A 0.000241088
18 *175:B *175:A 0.00068983
19 *180:B *180:A_N 1.9251e-05
20 *183:A1 *66:18 0.00055388
21 *184:A_N *184:B 0.000241297
22 *188:B *66:52 0
23 *65:29 *66:18 7.4933e-05
24 *65:29 *66:31 0.000318935
25 *65:29 *66:46 0
26 *65:31 *66:52 0
27 *65:42 *66:52 0.000128663
28 *65:42 *66:61 0.000554993
29 *65:42 *66:72 7.52158e-05
30 *65:53 *175:A 7.51285e-05
31 *65:53 *66:72 0.000318935
32 *170:C *170:B 8.0194e-05
33 *172:C *172:B 0.000241088
34 *185:B1 *183:A1 0
35 *188:C *188:B 1.54008e-05
36 *189:A *175:B 0
37 *189:A *65:42 0
38 *189:A *65:53 0
39 *189:B *65:29 1.54008e-05
40 *189:B *65:31 0.000209505
41 *192:A *184:A_N 0
42 *210:D *180:B 0.000241847
43 *9:10 *65:78 0
44 *15:8 *65:78 0
45 *19:16 *170:B 0
46 *19:45 *183:A1 1.54008e-05
47 *29:8 *65:42 0
48 *30:10 *65:31 0.000111968
49 *36:10 *175:B 0.000340375
50 *37:10 *175:B 0
51 *44:6 *170:B 0
52 *46:33 *65:78 0
53 *47:16 *170:B 0.000234224
54 *47:16 *65:78 0.00034112
55 *49:14 *175:B 0
56 *57:20 *183:A1 0
57 *61:10 *183:A1 0
*RES
1 *231:X *65:6 40 
2 *65:6 *65:12 44.429 
3 *65:12 *183:A1 45.768 
4 *65:12 *65:29 23.7286 
5 *65:29 *65:31 1.6171 
6 *65:31 *188:B 20.3193 
7 *65:31 *65:42 23.3166 
8 *65:42 *184:A_N 41.6171 
9 *65:42 *65:53 1.8334 
10 *65:53 *172:B 41.6171 
11 *65:53 *175:B 43.3166 
12 *65:29 *186:B 20 
13 *65:6 *65:78 2.0806 
14 *65:78 *180:B 41.8334 
15 *65:78 *170:B 41.6274 
*END

*D_NET *66 0.0123785
*CONN
*I *183:B1 I *D sg13cmos5l_a21oi_1
*I *186:A I *D sg13cmos5l_nand2_1
*I *175:A I *D sg13cmos5l_nand4_1
*I *172:A I *D sg13cmos5l_and4_2
*I *184:B I *D sg13cmos5l_nand2b_1
*I *188:A I *D sg13cmos5l_nand3_1
*I *180:A_N I *D sg13cmos5l_nand2b_1
*I *165:A I *D sg13cmos5l_inv_1
*I *232:X O *D sg13cmos5l_buf_1
*CAP
1 *183:B1 0
2 *186:A 0
3 *175:A 0.000258348
4 *172:A 0.000200991
5 *184:B 0.000153223
6 *188:A 0
7 *180:A_N 0.000450713
8 *165:A 0.000278148
9 *232:X 0.000256317
10 *66:72 0.000530355
11 *66:61 0.000323452
12 *66:52 0.000372612
13 *66:46 0.00046609
14 *66:31 0.000706396
15 *66:18 0.000795122
16 *66:12 0.000710298
17 *172:B *172:A 0.000241088
18 *175:B *175:A 0.00068983
19 *177:A1 *175:A 1.54446e-05
20 *180:B *180:A_N 1.9251e-05
21 *183:A1 *66:18 0.00055388
22 *184:A_N *184:B 0.000241297
23 *187:A *66:52 7.52149e-05
24 *188:B *66:52 0
25 *188:C *66:52 1.54008e-05
26 *192:A *175:A 0
27 *210:D *180:A_N 0.000111966
28 *218:CLK *184:B 0.000273639
29 *220:CLK *172:A 0
30 *8:10 *66:12 8.01933e-05
31 *19:28 *66:18 0.000501142
32 *19:28 *66:31 0.000340949
33 *19:30 *66:12 1.54008e-05
34 *19:30 *66:18 0
35 *19:45 *66:12 6.46834e-05
36 *20:10 *175:A 0.000234224
37 *20:25 *175:A 0.00034079
38 *28:28 *175:A 0
39 *30:10 *66:52 0.000111968
40 *48:47 *175:A 0.000106392
41 *48:47 *66:52 0.00018211
42 *48:47 *66:61 0.00053281
43 *48:47 *66:72 0.000373299
44 *57:20 *66:18 0
45 *58:14 *165:A 0.000208615
46 *65:29 *66:18 7.4933e-05
47 *65:29 *66:31 0.000318935
48 *65:29 *66:46 0
49 *65:31 *66:52 0
50 *65:42 *66:52 0.000128663
51 *65:42 *66:61 0.000554993
52 *65:42 *66:72 7.52158e-05
53 *65:53 *175:A 7.51285e-05
54 *65:53 *66:72 0.000318935
*RES
1 *232:X *66:12 22.6677 
2 *66:12 *66:18 25.3045 
3 *66:18 *165:A 42.4823 
4 *66:18 *66:31 21.5862 
5 *66:31 *180:A_N 23.3114 
6 *66:31 *66:46 1.6171 
7 *66:46 *66:52 22.9252 
8 *66:52 *188:A 40 
9 *66:52 *66:61 2.575 
10 *66:61 *184:B 41.8334 
11 *66:61 *66:72 1.8334 
12 *66:72 *172:A 41.8334 
13 *66:72 *175:A 44.3466 
14 *66:46 *186:A 20 
15 *66:12 *183:B1 20 
*END

*D_NET *67 0.00079911
*CONN
*I *222:RESET_B I *D sg13cmos5l_dfrbpq_1
*I *223:L_HI O *D sg13cmos5l_tiehi
*CAP
1 *222:RESET_B 0.000310894
2 *223:L_HI 0.000310894
3 *197:A2 *222:RESET_B 0
4 *38:18 *222:RESET_B 0.000177323
5 *64:117 *222:RESET_B 0
*RES
1 *223:L_HI *222:RESET_B 43.1256 
*END

*D_NET *68 0.000765371
*CONN
*I *206:RESET_B I *D sg13cmos5l_dfrbpq_1
*I *207:L_HI O *D sg13cmos5l_tiehi
*CAP
1 *206:RESET_B 0.000342643
2 *207:L_HI 0.000342643
3 *45:8 *206:RESET_B 8.00842e-05
4 *50:41 *206:RESET_B 0
*RES
1 *207:L_HI *206:RESET_B 43.2754 
*END

*D_NET *69 0.000517267
*CONN
*I *208:RESET_B I *D sg13cmos5l_dfrbpq_1
*I *209:L_HI O *D sg13cmos5l_tiehi
*CAP
1 *208:RESET_B 0.000258633
2 *209:L_HI 0.000258633
3 *208:CLK *208:RESET_B 0
4 *230:A *208:RESET_B 0
*RES
1 *209:L_HI *208:RESET_B 42.6162 
*END

*D_NET *70 0.0014249
*CONN
*I *220:RESET_B I *D sg13cmos5l_dfrbpq_1
*I *221:L_HI O *D sg13cmos5l_tiehi
*CAP
1 *220:RESET_B 5.81931e-05
2 *221:L_HI 0.000243141
3 *70:8 0.000301334
4 *70:8 *71:12 0
5 *187:A *70:8 0.000341707
6 *48:47 *70:8 0.00048052
*RES
1 *221:L_HI *70:8 43.811 
2 *70:8 *220:RESET_B 40.5356 
*END

*D_NET *71 0.00192054
*CONN
*I *218:RESET_B I *D sg13cmos5l_dfrbpq_1
*I *219:L_HI O *D sg13cmos5l_tiehi
*CAP
1 *218:RESET_B 8.83408e-05
2 *219:L_HI 0.000871931
3 *71:12 0.000960272
4 *185:B1 *71:12 0
5 *187:A *71:12 0
6 *187:B *71:12 0
7 *218:CLK *218:RESET_B 0
8 *10:10 *71:12 0
9 *70:8 *71:12 0
*RES
1 *219:L_HI *71:12 48.961 
2 *71:12 *218:RESET_B 40.9682 
*END
