*SPEF "ieee 1481-1999"
*DESIGN "pfd_digital"
*DATE "08:40:21 Wednesday September 09, 2026"
*VENDOR "The OpenROAD Project"
*PROGRAM "OpenROAD"
*VERSION "dcf36133a369abc8f3c5e5738cd4d82e4903c0e0"
*DESIGN_FLOW "NAME_SCOPE LOCAL" "PIN_CAP NONE"
*DIVIDER /
*DELIMITER :
*BUS_DELIMITER []
*T_UNIT 1 NS
*C_UNIT 1 PF
*R_UNIT 1 OHM
*L_UNIT 1 HENRY

*NAME_MAP
*3 clk_fb
*4 clk_ref
*5 dn
*6 up
*7 _0_
*8 _1_
*9 net
*10 net1
*11 net2
*12 net3
*13 net4
*14 FILLER_0_0
*15 FILLER_0_14
*16 FILLER_0_21
*17 FILLER_0_28
*18 FILLER_0_35
*19 FILLER_0_42
*20 FILLER_0_49
*21 FILLER_0_7
*22 FILLER_1_11
*23 FILLER_1_18
*24 FILLER_1_25
*25 FILLER_1_4
*26 FILLER_2_0
*27 FILLER_2_11
*28 FILLER_2_19
*29 FILLER_2_21
*30 FILLER_2_26
*31 FILLER_2_28
*32 FILLER_2_35
*33 FILLER_2_42
*34 FILLER_2_52
*35 FILLER_2_7
*36 FILLER_3_0
*37 FILLER_3_14
*38 FILLER_3_21
*39 FILLER_3_26
*40 FILLER_3_28
*41 FILLER_3_7
*42 FILLER_4_11
*43 FILLER_4_18
*44 FILLER_4_25
*45 FILLER_4_32
*46 FILLER_4_39
*47 FILLER_4_4
*48 FILLER_4_46
*49 FILLER_4_53
*50 FILLER_4_55
*51 _4_
*52 _5_
*53 _6_
*54 _6__3
*55 _7_
*56 _7__4
*57 hold5
*58 output1
*59 output2

*PORTS
clk_fb I
clk_ref I
dn O
up O

*D_NET *3 0.00145659
*CONN
*P clk_fb I
*I *53:CLK I *D sg13cmos5l_dfrbpq_1
*CAP
1 clk_fb 0.000728294
2 *53:CLK 0.000728294
*RES
1 clk_fb *53:CLK 48.0649 
*END

*D_NET *4 0.00110476
*CONN
*P clk_ref I
*I *55:CLK I *D sg13cmos5l_dfrbpq_1
*CAP
1 clk_ref 0.000552381
2 *55:CLK 0.000552381
3 *55:CLK *55:RESET_B 0
4 *55:CLK *11:12 0
5 *55:CLK *11:16 0
*RES
1 clk_ref *55:CLK 46.7671 
*END

*D_NET *5 0.00044683
*CONN
*P dn O
*I *58:X O *D sg13cmos5l_buf_1
*CAP
1 dn 0.000223415
2 *58:X 0.000223415
*RES
1 *58:X dn 42.7089 
*END

*D_NET *6 0.000518109
*CONN
*P up O
*I *59:X O *D sg13cmos5l_buf_1
*CAP
1 up 0.000259054
2 *59:X 0.000259054
*RES
1 *59:X up 42.9252 
*END

*D_NET *7 0.000637368
*CONN
*I *55:RESET_B I *D sg13cmos5l_dfrbpq_1
*I *52:Y O *D sg13cmos5l_nand2_2
*CAP
1 *55:RESET_B 0.000278642
2 *52:Y 0.000278642
3 *55:RESET_B *52:B 8.00842e-05
4 *55:CLK *55:RESET_B 0
*RES
1 *52:Y *55:RESET_B 42.6162 
*END

*D_NET *8 0.0013764
*CONN
*I *53:RESET_B I *D sg13cmos5l_dfrbpq_1
*I *51:Y O *D sg13cmos5l_nand2_2
*CAP
1 *53:RESET_B 0
2 *51:Y 0.000632282
3 *8:10 0.000632282
4 *8:10 *9:8 0
5 *8:10 *10:33 0.000111837
*RES
1 *51:Y *8:10 46.386 
2 *8:10 *53:RESET_B 40 
*END

*D_NET *9 0.000437761
*CONN
*I *53:D I *D sg13cmos5l_dfrbpq_1
*I *54:L_HI O *D sg13cmos5l_tiehi
*CAP
1 *53:D 6.26207e-05
2 *54:L_HI 0.00015626
3 *9:8 0.00021888
4 *8:10 *9:8 0
*RES
1 *54:L_HI *9:8 41.339 
2 *9:8 *53:D 40.5356 
*END

*D_NET *10 0.0064715
*CONN
*I *52:A I *D sg13cmos5l_nand2_2
*I *58:A I *D sg13cmos5l_buf_1
*I *51:A I *D sg13cmos5l_nand2_2
*I *53:Q O *D sg13cmos5l_dfrbpq_1
*CAP
1 *52:A 8.67136e-05
2 *58:A 0
3 *51:A 0
4 *53:Q 0.00064847
5 *10:33 0.001002
6 *10:18 0.00158819
7 *10:12 0.00132138
8 *10:12 *57:A 0
9 *10:12 *11:12 0
10 *10:12 *11:16 0.00109871
11 *10:12 *13:8 0.000614192
12 *10:18 *51:B 0
13 *10:18 *11:16 0
14 *8:10 *10:33 0.000111837
*RES
1 *53:Q *10:12 48.6211 
2 *10:12 *10:18 24.3157 
3 *10:18 *51:A 20 
4 *10:18 *10:33 47.6632 
5 *10:33 *58:A 20 
6 *10:12 *52:A 40.7519 
*END

*D_NET *11 0.00405553
*CONN
*I *57:A I *D sg13cmos5l_dlygate4sd3_1
*I *51:B I *D sg13cmos5l_nand2_2
*I *59:A I *D sg13cmos5l_buf_1
*I *55:Q O *D sg13cmos5l_dfrbpq_1
*CAP
1 *57:A 0.000114685
2 *51:B 0.000112329
3 *59:A 0
4 *55:Q 0.000164731
5 *11:24 0.000352056
6 *11:16 0.00119899
7 *11:12 0.00101403
8 *11:16 *12:10 0
9 *55:CLK *11:12 0
10 *55:CLK *11:16 0
11 *10:12 *57:A 0
12 *10:12 *11:12 0
13 *10:12 *11:16 0.00109871
14 *10:18 *51:B 0
15 *10:18 *11:16 0
*RES
1 *55:Q *11:12 41.7304 
2 *11:12 *11:16 29.0022 
3 *11:16 *11:24 44.2539 
4 *11:24 *59:A 20 
5 *11:16 *51:B 20.9682 
6 *11:12 *57:A 40.9682 
*END

*D_NET *12 0.0008565
*CONN
*I *55:D I *D sg13cmos5l_dfrbpq_1
*I *56:L_HI O *D sg13cmos5l_tiehi
*CAP
1 *55:D 0
2 *56:L_HI 0.00042825
3 *12:10 0.00042825
4 *11:16 *12:10 0
*RES
1 *56:L_HI *12:10 43.3887 
2 *12:10 *55:D 40 
*END

*D_NET *13 0.00133177
*CONN
*I *52:B I *D sg13cmos5l_nand2_2
*I *57:X O *D sg13cmos5l_dlygate4sd3_1
*CAP
1 *52:B 5.61002e-05
2 *57:X 0.000262649
3 *13:8 0.000318749
4 *55:RESET_B *52:B 8.00842e-05
5 *10:12 *13:8 0.000614192
*RES
1 *57:X *13:8 42.8222 
2 *13:8 *52:B 40.5356 
*END
