*SPEF "ieee 1481-1999"
*DESIGN "ref_clk_gen"
*DATE "04:35:20 Wednesday September 09, 2026"
*VENDOR "The OpenROAD Project"
*PROGRAM "OpenROAD"
*VERSION "dcf36133a369abc8f3c5e5738cd4d82e4903c0e0"
*DESIGN_FLOW "NAME_SCOPE LOCAL" "PIN_CAP NONE"
*DIVIDER /
*DELIMITER :
*BUS_DELIMITER []
*T_UNIT 1 NS
*C_UNIT 1 PF
*R_UNIT 1 OHM
*L_UNIT 1 HENRY

*NAME_MAP
*3 clk_i
*4 clk_out
*5 rst_ni
*6 _00_
*7 _01_
*8 _02_
*9 _03_
*10 _04_
*11 _05_
*12 _06_
*13 _07_
*14 _08_
*15 _09_
*16 _10_
*17 _11_
*18 _12_
*19 _13_
*20 _14_
*21 _15_
*22 _16_
*23 _17_
*24 _18_
*25 _19_
*26 _20_
*27 _21_
*28 _22_
*29 _23_
*30 _24_
*31 _25_
*32 _26_
*33 _27_
*34 _28_
*35 _29_
*36 _30_
*37 _31_
*38 _32_
*39 clknet_0_clk_i
*40 clknet_1_0__leaf_clk_i
*41 clknet_1_1__leaf_clk_i
*42 count\[0\]
*43 count\[1\]
*44 count\[2\]
*45 count\[3\]
*46 count\[4\]
*47 count\[5\]
*48 count\[6\]
*49 net1
*50 net10
*51 net11
*52 net12
*53 net13
*54 net14
*55 net15
*56 net16
*57 net17
*58 net18
*59 net19
*60 net2
*61 net3
*62 net4
*63 net5
*64 net6
*65 net7
*66 net8
*67 net9
*68 FILLER_0_100
*69 FILLER_0_107
*70 FILLER_0_11
*71 FILLER_0_114
*72 FILLER_0_18
*73 FILLER_0_25
*74 FILLER_0_4
*75 FILLER_0_61
*76 FILLER_0_93
*77 FILLER_1_0
*78 FILLER_1_105
*79 FILLER_1_112
*80 FILLER_1_119
*81 FILLER_1_19
*82 FILLER_1_21
*83 FILLER_1_26
*84 FILLER_1_28
*85 FILLER_1_65
*86 FILLER_1_98
*87 FILLER_2_0
*88 FILLER_2_19
*89 FILLER_2_26
*90 FILLER_2_28
*91 FILLER_2_4
*92 FILLER_2_65
*93 FILLER_3_0
*94 FILLER_3_106
*95 FILLER_3_113
*96 FILLER_3_120
*97 FILLER_3_19
*98 FILLER_3_21
*99 FILLER_3_26
*100 FILLER_3_30
*101 FILLER_3_4
*102 FILLER_4_0
*103 FILLER_4_106
*104 FILLER_4_113
*105 FILLER_4_120
*106 FILLER_4_19
*107 FILLER_4_26
*108 FILLER_4_28
*109 FILLER_4_70
*110 FILLER_4_92
*111 FILLER_4_99
*112 FILLER_5_0
*113 FILLER_5_106
*114 FILLER_5_113
*115 FILLER_5_120
*116 FILLER_5_19
*117 FILLER_5_26
*118 FILLER_5_28
*119 FILLER_5_4
*120 FILLER_6_0
*121 FILLER_6_105
*122 FILLER_6_112
*123 FILLER_6_119
*124 FILLER_6_19
*125 FILLER_6_26
*126 FILLER_6_28
*127 FILLER_6_7
*128 FILLER_6_70
*129 FILLER_6_77
*130 FILLER_6_84
*131 FILLER_6_88
*132 FILLER_6_98
*133 _33_
*134 _34_
*135 _35_
*136 _36_
*137 _37_
*138 _38_
*139 _39_
*140 _40_
*141 _41_
*142 _42_
*143 _43_
*144 _44_
*145 _45_
*146 _46_
*147 _47_
*148 _48_
*149 _49_
*150 _50_
*151 _51_
*152 _52_
*153 _53_
*154 _54_
*155 _55_
*156 _56_
*157 _57_
*158 _58_
*159 _59_
*160 _60_
*161 _61_
*162 _62_
*163 _63_
*164 _64_
*165 _65_
*166 _66_
*167 _67_
*168 _68_
*169 _69_
*170 _70_
*171 _71_
*172 _72_
*173 _73_
*174 clkbuf_0_clk_i
*175 clkbuf_1_0__f_clk_i
*176 clkbuf_1_1__f_clk_i
*177 fanout3
*178 fanout4
*179 hold10
*180 hold11
*181 hold12
*182 hold13
*183 hold14
*184 hold15
*185 hold16
*186 hold17
*187 hold18
*188 hold19
*189 hold5
*190 hold6
*191 hold7
*192 hold8
*193 hold9
*194 input1
*195 output2

*PORTS
clk_i I
clk_out O
rst_ni I

*D_NET *3 0.00527826
*CONN
*P clk_i I
*I *174:A I *D sg13cmos5l_buf_8
*CAP
1 clk_i 0.00238824
2 *174:A 0.000186988
3 *3:14 0.00257523
4 *174:A *154:A1 1.54008e-05
5 *174:A *18:28 0
6 *174:A *19:20 0.000112399
7 *3:14 *157:A2 0
8 *3:14 *189:A 0
9 *3:14 *190:A 0
10 *3:14 *9:12 0
11 *3:14 *12:8 0
12 *3:14 *19:20 0
13 *3:14 *31:12 0
14 *3:14 *32:10 0
15 *3:14 *43:21 0
16 *3:14 *53:8 0
17 *3:14 *57:31 0
18 *3:14 *61:67 0
19 *3:14 *64:8 0
*RES
1 clk_i *3:14 42.969 
2 *3:14 *174:A 21.7819 
*END

*D_NET *4 0.00182671
*CONN
*P clk_out O
*I *195:X O *D sg13cmos5l_buf_1
*CAP
1 clk_out 0.00020757
2 *195:X 0.000705787
3 *4:8 0.000913357
4 *4:8 *140:A 0
5 *4:8 *150:B1 0
6 *4:8 *17:35 0
7 *4:8 *29:68 0
*RES
1 *195:X *4:8 47.2718 
2 *4:8 clk_out 22.3278 
*END

*D_NET *5 0.000639562
*CONN
*P rst_ni I
*I *194:A I *D sg13cmos5l_buf_1
*CAP
1 rst_ni 0.000319781
2 *194:A 0.000319781
*RES
1 rst_ni *194:A 43.7904 
*END

*D_NET *6 0.000785047
*CONN
*I *186:A I *D sg13cmos5l_dlygate4sd3_1
*I *135:Y O *D sg13cmos5l_nor3_2
*CAP
1 *186:A 0
2 *135:Y 0.000392523
3 *6:8 0.000392523
4 *6:8 *8:8 0
5 *6:8 *49:8 0
*RES
1 *135:Y *6:8 43.5638 
2 *6:8 *186:A 40 
*END

*D_NET *7 0.000828462
*CONN
*I *167:D I *D sg13cmos5l_dfrbpq_1
*I *137:Y O *D sg13cmos5l_nor2_1
*CAP
1 *167:D 0
2 *137:Y 0.000414231
3 *7:10 0.000414231
4 *7:10 *49:8 0
*RES
1 *137:Y *7:10 43.6359 
2 *7:10 *167:D 40 
*END

*D_NET *8 0.00204325
*CONN
*I *168:D I *D sg13cmos5l_dfrbpq_1
*I *138:X O *D sg13cmos5l_xor2_1
*CAP
1 *168:D 0.00015361
2 *138:X 0.000564251
3 *8:8 0.000717861
4 *8:8 *16:10 0.000607524
5 *8:8 *49:8 0
6 *8:8 *59:14 0
7 *8:8 *62:82 0
8 *6:8 *8:8 0
*RES
1 *138:X *8:8 45.5414 
2 *8:8 *168:D 41.1845 
*END

*D_NET *9 0.00340443
*CONN
*I *169:D I *D sg13cmos5l_dfrbpq_1
*I *141:Y O *D sg13cmos5l_nor2_1
*CAP
1 *169:D 0
2 *141:Y 0.000254329
3 *9:20 0.00064754
4 *9:12 0.00090187
5 *9:12 *14:12 0.000182634
6 *9:12 *18:28 0.000242253
7 *9:20 *166:CLK 7.57164e-05
8 *9:20 *21:18 0
9 *9:20 *29:20 0
10 *9:20 *57:23 0.00110008
11 *3:14 *9:12 0
*RES
1 *141:Y *9:12 42.8119 
2 *9:12 *9:20 47.8074 
3 *9:20 *169:D 40 
*END

*D_NET *10 0.00154111
*CONN
*I *180:A I *D sg13cmos5l_dlygate4sd3_1
*I *150:Y O *D sg13cmos5l_o21ai_1
*CAP
1 *180:A 0.000469354
2 *150:Y 0.000469354
3 *180:A *150:A1 0
4 *180:A *150:A2 8.0216e-05
5 *180:A *18:28 0.000500008
6 *180:A *58:39 2.21754e-05
*RES
1 *150:Y *180:A 44.6968 
*END

*D_NET *11 0.00223314
*CONN
*I *193:A I *D sg13cmos5l_dlygate4sd3_1
*I *154:Y O *D sg13cmos5l_a22oi_1
*CAP
1 *193:A 0.000219171
2 *154:Y 0.000424507
3 *11:20 0.000643678
4 *193:A *27:14 0
5 *193:A *50:18 0.000240957
6 *11:20 *154:A1 0.000112714
7 *11:20 *22:41 0
8 *11:20 *27:14 0.000448701
9 *11:20 *29:20 0
10 *11:20 *29:34 0
11 *11:20 *29:58 0.00014341
12 *11:20 *39:13 0
*RES
1 *154:Y *11:20 44.7122 
2 *11:20 *193:A 42.0497 
*END

*D_NET *12 0.00106899
*CONN
*I *191:A I *D sg13cmos5l_dlygate4sd3_1
*I *159:Y O *D sg13cmos5l_a21oi_1
*CAP
1 *191:A 0.000178494
2 *159:Y 0.000158634
3 *12:8 0.000337128
4 *191:A *184:A 0
5 *12:8 *32:10 0.000394739
6 *3:14 *12:8 0
*RES
1 *159:Y *12:8 41.8334 
2 *12:8 *191:A 41.4008 
*END

*D_NET *13 0.000287612
*CONN
*I *183:A I *D sg13cmos5l_dlygate4sd3_1
*I *165:Y O *D sg13cmos5l_nand3_1
*CAP
1 *183:A 0.000103676
2 *165:Y 0.000103676
3 *183:A *165:B 0
4 *183:A *34:10 8.02595e-05
*RES
1 *165:Y *183:A 41.133 
*END

*D_NET *14 0.00813807
*CONN
*I *136:A I *D sg13cmos5l_nor2_1
*I *135:B I *D sg13cmos5l_nor3_2
*I *164:A1 I *D sg13cmos5l_o21ai_1
*I *133:Y O *D sg13cmos5l_nand4_1
*CAP
1 *136:A 0
2 *135:B 0.000316923
3 *164:A1 3.58106e-05
4 *133:Y 0.000578141
5 *14:35 0.000765539
6 *14:24 0.000546333
7 *14:20 0.000936247
8 *14:12 0.00145248
9 *135:B *135:C 0
10 *135:B *138:B 0
11 *135:B *156:B 0
12 *135:B *16:10 0.000112349
13 *164:A1 *15:8 0
14 *14:12 *133:D 0
15 *14:12 *19:8 0.000395938
16 *14:12 *32:10 0
17 *14:12 *34:24 0.000986885
18 *14:12 *35:10 0.000182033
19 *14:12 *48:10 0.000959054
20 *14:12 *48:12 7.52158e-05
21 *14:12 *62:27 7.68089e-05
22 *14:12 *63:67 0
23 *14:20 *29:40 0
24 *14:20 *34:24 0
25 *14:20 *40:21 0
26 *14:20 *63:67 0.000181366
27 *14:35 *136:B 0.000209413
28 *14:35 *156:B 0
29 *14:35 *163:B_N 0
30 *14:35 *15:8 0
31 *14:35 *15:14 0.000144899
32 *14:35 *61:20 0
33 *9:12 *14:12 0.000182634
*RES
1 *133:Y *14:12 49.4245 
2 *14:12 *14:20 47.2203 
3 *14:20 *14:24 20.5356 
4 *14:24 *164:A1 20.3502 
5 *14:24 *14:35 4.3466 
6 *14:35 *135:B 23.6462 
7 *14:35 *136:A 20 
*END

*D_NET *15 0.00981599
*CONN
*I *185:A I *D sg13cmos5l_dlygate4sd3_1
*I *144:B I *D sg13cmos5l_nor3_1
*I *152:A1 I *D sg13cmos5l_o21ai_1
*I *136:B I *D sg13cmos5l_nor2_1
*I *134:Y O *D sg13cmos5l_nand2b_1
*CAP
1 *185:A 0
2 *144:B 0.00012976
3 *152:A1 0.000868375
4 *136:B 0.000114289
5 *134:Y 0.000107616
6 *15:25 0.00185742
7 *15:14 0.00113316
8 *15:8 0.00026721
9 *136:B *156:B 0.000209413
10 *144:B *154:A1 0.000112426
11 *144:B *19:20 0
12 *144:B *21:18 4.77425e-05
13 *144:B *29:34 4.78994e-05
14 *152:A1 *146:A 0.000176863
15 *152:A1 *20:27 1.54008e-05
16 *152:A1 *27:14 0
17 *152:A1 *28:14 0
18 *152:A1 *29:20 5.30319e-05
19 *152:A1 *29:34 0.000143561
20 *15:8 *163:B_N 0
21 *15:14 *61:20 0
22 *15:25 *145:A 0
23 *15:25 *29:34 0.000506488
24 *15:25 *29:40 0.00135928
25 *15:25 *39:13 0
26 *15:25 *61:59 0.00231173
27 *164:A1 *15:8 0
28 *14:35 *136:B 0.000209413
29 *14:35 *15:8 0
30 *14:35 *15:14 0.000144899
*RES
1 *134:Y *15:8 21.133 
2 *15:8 *15:14 21.5656 
3 *15:14 *136:B 41.4008 
4 *15:14 *15:25 13.4518 
5 *15:25 *152:A1 45.562 
6 *15:25 *144:B 41.4214 
7 *15:8 *185:A 20 
*END

*D_NET *16 0.00181024
*CONN
*I *137:B I *D sg13cmos5l_nor2_1
*I *136:Y O *D sg13cmos5l_nor2_1
*CAP
1 *137:B 0.000111097
2 *136:Y 0.000210451
3 *16:10 0.000321548
4 *16:10 *135:C 0
5 *16:10 *42:16 0.000447269
6 *16:10 *59:14 0
7 *135:B *16:10 0.000112349
8 *8:8 *16:10 0.000607524
*RES
1 *136:Y *16:10 43.5741 
2 *16:10 *137:B 40.7519 
*END

*D_NET *17 0.00798928
*CONN
*I *149:A1 I *D sg13cmos5l_a21oi_1
*I *151:C I *D sg13cmos5l_nand3_1
*I *140:B I *D sg13cmos5l_xnor2_1
*I *158:A2 I *D sg13cmos5l_a21oi_1
*I *139:X O *D sg13cmos5l_and2_1
*CAP
1 *149:A1 0
2 *151:C 5.92692e-05
3 *140:B 0
4 *158:A2 2.34911e-05
5 *139:X 0.000257764
6 *17:65 0.000471309
7 *17:48 0.00131174
8 *17:35 0.000184061
9 *17:20 0.000950543
10 *17:14 0.000963448
11 *17:6 0.00125938
12 *151:C *171:CLK 0
13 *151:C *44:43 1.54008e-05
14 *151:C *44:62 8.00842e-05
15 *158:A2 *29:68 4.79124e-05
16 *17:6 *139:A 0
17 *17:6 *139:B 0.000143391
18 *17:6 *157:A2 0
19 *17:6 *35:10 0.0001289
20 *17:14 *19:20 0
21 *17:14 *35:10 0.000111373
22 *17:14 *61:67 0.000278129
23 *17:14 *62:27 0.000278534
24 *17:20 *140:A 0
25 *17:20 *144:C 0
26 *17:20 *145:B 0.000112426
27 *17:20 *150:A1 0
28 *17:20 *158:B1 0
29 *17:20 *181:A 0
30 *17:20 *20:12 0
31 *17:20 *22:8 0
32 *17:20 *29:68 9.70906e-05
33 *17:20 *35:10 1.54556e-05
34 *17:20 *60:10 0
35 *17:20 *63:26 0
36 *17:35 *140:A 2.7428e-05
37 *17:35 *150:A1 0
38 *17:35 *29:68 0
39 *17:48 *133:D 0.000610641
40 *17:48 *171:CLK 0
41 *17:48 *19:8 0
42 *17:48 *22:16 0
43 *17:48 *30:18 0.000182634
44 *17:48 *44:62 0
45 *17:48 *45:29 0
46 *17:48 *49:78 0.000182291
47 *17:48 *66:8 0
48 *17:48 *67:10 0
49 *17:65 *149:A2 1.54008e-05
50 *17:65 *45:29 0.000181192
51 *17:65 *46:8 0
52 *4:8 *17:35 0
*RES
1 *139:X *17:6 22.4823 
2 *17:6 *17:14 42.5853 
3 *17:14 *17:20 46.3757 
4 *17:20 *158:A2 20.3193 
5 *17:20 *17:35 41.9055 
6 *17:35 *140:B 20 
7 *17:6 *17:48 48.5181 
8 *17:48 *151:C 20.5356 
9 *17:48 *17:65 44.4496 
10 *17:65 *149:A1 20 
*END

*D_NET *18 0.00437537
*CONN
*I *141:B I *D sg13cmos5l_nor2_1
*I *140:Y O *D sg13cmos5l_xnor2_1
*CAP
1 *141:B 0
2 *140:Y 0.00131679
3 *18:28 0.00131679
4 *18:28 *133:A 0
5 *18:28 *133:D 0.000144742
6 *18:28 *150:A1 4.78685e-05
7 *18:28 *154:A2 0.000240918
8 *18:28 *189:A 0.000241088
9 *18:28 *29:12 0.000182374
10 *18:28 *29:68 0
11 *18:28 *49:40 4.77425e-05
12 *18:28 *49:55 4.77425e-05
13 *18:28 *57:31 0
14 *18:28 *58:39 4.70653e-05
15 *18:28 *66:12 0
16 *174:A *18:28 0
17 *180:A *18:28 0.000500008
18 *9:12 *18:28 0.000242253
*RES
1 *140:Y *18:28 34.0647 
2 *18:28 *141:B 20 
*END

*D_NET *19 0.00328056
*CONN
*I *144:A I *D sg13cmos5l_nor3_1
*I *154:A1 I *D sg13cmos5l_a22oi_1
*I *142:Y O *D sg13cmos5l_inv_1
*CAP
1 *144:A 0
2 *154:A1 0.000248253
3 *142:Y 0.000237845
4 *19:20 0.000758295
5 *19:8 0.000747887
6 *154:A1 *154:B1 3.15716e-05
7 *154:A1 *21:18 0.000164925
8 *19:8 *133:D 0.000342906
9 *19:8 *66:16 0
10 *19:20 *20:12 0
11 *19:20 *35:10 0
12 *144:B *154:A1 0.000112426
13 *144:B *19:20 0
14 *174:A *154:A1 1.54008e-05
15 *174:A *19:20 0.000112399
16 *3:14 *19:20 0
17 *11:20 *154:A1 0.000112714
18 *14:12 *19:8 0.000395938
19 *17:14 *19:20 0
20 *17:48 *19:8 0
*RES
1 *142:Y *19:8 43.0694 
2 *19:8 *19:20 24.5011 
3 *19:20 *154:A1 22.611 
4 *19:20 *144:A 20 
*END

*D_NET *20 0.00228802
*CONN
*I *152:A2 I *D sg13cmos5l_o21ai_1
*I *144:C I *D sg13cmos5l_nor3_1
*I *143:Y O *D sg13cmos5l_nand2b_1
*CAP
1 *152:A2 0
2 *144:C 5.29622e-05
3 *143:Y 0.000251347
4 *20:27 0.00062673
5 *20:12 0.000931039
6 *20:12 *35:10 4.77425e-05
7 *20:27 *39:13 0
8 *20:27 *50:10 0.00012816
9 *20:27 *50:18 0.00023464
10 *152:A1 *20:27 1.54008e-05
11 *17:20 *144:C 0
12 *17:20 *20:12 0
13 *19:20 *20:12 0
*RES
1 *143:Y *20:12 22.5132 
2 *20:12 *144:C 20.5356 
3 *20:12 *20:27 45.3354 
4 *20:27 *152:A2 20 
*END

*D_NET *21 0.00246004
*CONN
*I *150:A1 I *D sg13cmos5l_o21ai_1
*I *144:Y O *D sg13cmos5l_nor3_1
*CAP
1 *150:A1 0.000408916
2 *144:Y 0.000382945
3 *21:18 0.000791861
4 *150:A1 *140:A 0
5 *150:A1 *150:A2 4.79124e-05
6 *150:A1 *154:B1 4.70638e-05
7 *150:A1 *29:68 0.000337698
8 *150:A1 *60:10 0
9 *21:18 *154:B1 0
10 *21:18 *166:CLK 0
11 *21:18 *181:A 0
12 *21:18 *28:14 7.51285e-05
13 *21:18 *29:34 0.000107977
14 *144:B *21:18 4.77425e-05
15 *154:A1 *21:18 0.000164925
16 *180:A *150:A1 0
17 *9:20 *21:18 0
18 *17:20 *150:A1 0
19 *17:35 *150:A1 0
20 *18:28 *150:A1 4.78685e-05
*RES
1 *144:Y *21:18 43.9912 
2 *21:18 *150:A1 44.5114 
*END

*D_NET *22 0.00670587
*CONN
*I *152:B1 I *D sg13cmos5l_o21ai_1
*I *146:B I *D sg13cmos5l_nand2_1
*I *145:Y O *D sg13cmos5l_nand2_1
*CAP
1 *152:B1 0
2 *146:B 0.000760234
3 *145:Y 0.000249291
4 *22:41 0.000171781
5 *22:20 0.00112576
6 *22:16 0.00111163
7 *22:8 0.00116718
8 *146:B *146:A 0
9 *146:B *150:A2 0
10 *146:B *39:29 6.68376e-05
11 *146:B *39:38 0
12 *146:B *58:10 0
13 *146:B *58:39 0.000473051
14 *22:8 *145:B 1.54008e-05
15 *22:8 *181:A 0
16 *22:16 *30:18 0
17 *22:16 *33:12 0
18 *22:16 *44:62 0.00012816
19 *22:16 *57:23 0
20 *22:16 *61:67 0.00044137
21 *22:16 *63:8 2.19989e-05
22 *22:20 *153:A 0.000144768
23 *22:20 *50:18 0.00030564
24 *22:20 *58:39 0.000129028
25 *22:41 *27:14 0
26 *22:41 *50:10 0.000159096
27 *22:41 *50:18 0.00023464
28 *11:20 *22:41 0
29 *17:20 *22:8 0
30 *17:48 *22:16 0
*RES
1 *145:Y *22:8 42.0497 
2 *22:8 *22:16 48.6726 
3 *22:16 *22:20 22.266 
4 *22:20 *146:B 27.5602 
5 *22:20 *22:41 42.0806 
6 *22:41 *152:B1 20 
*END

*D_NET *23 0.000798204
*CONN
*I *150:A2 I *D sg13cmos5l_o21ai_1
*I *146:Y O *D sg13cmos5l_nand2_1
*CAP
1 *150:A2 0.00029493
2 *146:Y 0.00029493
3 *150:A2 *146:A 8.0216e-05
4 *150:A2 *58:39 0
5 *146:B *150:A2 0
6 *150:A1 *150:A2 4.79124e-05
7 *180:A *150:A2 8.0216e-05
*RES
1 *146:Y *150:A2 43.3784 
*END

*D_NET *24 0.000210866
*CONN
*I *149:A2 I *D sg13cmos5l_a21oi_1
*I *147:Y O *D sg13cmos5l_nor2b_1
*CAP
1 *149:A2 9.77326e-05
2 *147:Y 9.77326e-05
3 *149:A2 *149:B1 0
4 *17:65 *149:A2 1.54008e-05
*RES
1 *147:Y *149:A2 41.133 
*END

*D_NET *25 0.00132863
*CONN
*I *149:B1 I *D sg13cmos5l_a21oi_1
*I *148:Y O *D sg13cmos5l_nor2b_1
*CAP
1 *149:B1 0.000395882
2 *148:Y 0.000395882
3 *149:B1 *148:B_N 0
4 *149:B1 *170:CLK 0.000209549
5 *149:B1 *26:12 0.000134922
6 *149:B1 *45:14 0.000176994
7 *149:B1 *45:29 1.54008e-05
8 *149:A2 *149:B1 0
*RES
1 *148:Y *149:B1 43.914 
*END

*D_NET *26 0.0026583
*CONN
*I *150:B1 I *D sg13cmos5l_o21ai_1
*I *149:Y O *D sg13cmos5l_a21oi_1
*CAP
1 *150:B1 0.000614544
2 *149:Y 0.00060705
3 *26:12 0.00122159
4 *150:B1 *41:10 0
5 *150:B1 *41:12 0
6 *150:B1 *41:14 0
7 *150:B1 *58:10 0
8 *150:B1 *60:10 0
9 *26:12 *148:A 8.01938e-05
10 *26:12 *170:CLK 0
11 *26:12 *187:A 0
12 *26:12 *195:A 0
13 *149:B1 *26:12 0.000134922
14 *4:8 *150:B1 0
*RES
1 *149:Y *26:12 45.9637 
2 *26:12 *150:B1 46.0358 
*END

*D_NET *27 0.00266438
*CONN
*I *154:A2 I *D sg13cmos5l_a22oi_1
*I *151:Y O *D sg13cmos5l_nand3_1
*CAP
1 *154:A2 0.000144665
2 *151:Y 0.00071943
3 *27:14 0.000864095
4 *154:A2 *29:58 0.000176235
5 *154:A2 *29:68 4.77425e-05
6 *27:14 *28:14 0
7 *27:14 *29:20 2.25909e-05
8 *27:14 *44:26 0
9 *27:14 *44:43 0
10 *27:14 *50:10 0
11 *152:A1 *27:14 0
12 *193:A *27:14 0
13 *11:20 *27:14 0.000448701
14 *18:28 *154:A2 0.000240918
15 *22:41 *27:14 0
*RES
1 *151:Y *27:14 47.0555 
2 *27:14 *154:A2 41.6171 
*END

*D_NET *28 0.0025371
*CONN
*I *154:B1 I *D sg13cmos5l_a22oi_1
*I *152:Y O *D sg13cmos5l_o21ai_1
*CAP
1 *154:B1 0.00016952
2 *152:Y 0.000877434
3 *28:14 0.00104695
4 *154:B1 *29:68 0
5 *28:14 *146:A 0
6 *28:14 *166:CLK 0
7 *28:14 *39:38 0
8 *28:14 *44:26 0
9 *28:14 *49:55 0.000177032
10 *28:14 *49:70 0.000112399
11 *150:A1 *154:B1 4.70638e-05
12 *152:A1 *28:14 0
13 *154:A1 *154:B1 3.15716e-05
14 *21:18 *154:B1 0
15 *21:18 *28:14 7.51285e-05
16 *27:14 *28:14 0
*RES
1 *152:Y *28:14 48.1061 
2 *28:14 *154:B1 41.4008 
*END

*D_NET *29 0.011312
*CONN
*I *154:B2 I *D sg13cmos5l_a22oi_1
*I *158:A1 I *D sg13cmos5l_a21oi_1
*I *161:C I *D sg13cmos5l_nand4_1
*I *159:A1 I *D sg13cmos5l_a21oi_1
*I *153:X O *D sg13cmos5l_and3_1
*CAP
1 *154:B2 0
2 *158:A1 0
3 *161:C 0.000117591
4 *159:A1 0
5 *153:X 0.00015114
6 *29:68 0.000639445
7 *29:58 0.000737091
8 *29:40 0.00146179
9 *29:34 0.00217963
10 *29:20 0.00103946
11 *29:12 0.000492708
12 *161:C *34:24 1.11321e-05
13 *161:C *52:6 0.000176522
14 *29:12 *58:39 8.00842e-05
15 *29:34 *39:13 0
16 *29:40 *159:A2 1.54008e-05
17 *29:40 *173:RESET_B 0
18 *29:40 *173:D 0.000241088
19 *29:40 *55:10 0
20 *29:68 *140:A 0.000128248
21 *29:68 *158:B1 0.000145268
22 *29:68 *49:40 4.77425e-05
23 *29:68 *49:55 3.23694e-05
24 *29:68 *60:10 0.000342034
25 *144:B *29:34 4.78994e-05
26 *150:A1 *29:68 0.000337698
27 *152:A1 *29:20 5.30319e-05
28 *152:A1 *29:34 0.000143561
29 *154:B1 *29:68 0
30 *154:A2 *29:58 0.000176235
31 *154:A2 *29:68 4.77425e-05
32 *158:A2 *29:68 4.79124e-05
33 *4:8 *29:68 0
34 *9:20 *29:20 0
35 *11:20 *29:20 0
36 *11:20 *29:34 0
37 *11:20 *29:58 0.00014341
38 *14:20 *29:40 0
39 *15:25 *29:34 0.000506488
40 *15:25 *29:40 0.00135928
41 *17:20 *29:68 9.70906e-05
42 *17:35 *29:68 0
43 *18:28 *29:12 0.000182374
44 *18:28 *29:68 0
45 *21:18 *29:34 0.000107977
46 *27:14 *29:20 2.25909e-05
*RES
1 *153:X *29:12 41.6377 
2 *29:12 *29:20 43.914 
3 *29:20 *29:34 45.0573 
4 *29:34 *29:40 31.3609 
5 *29:40 *159:A1 20 
6 *29:34 *161:C 41.1845 
7 *29:20 *29:58 21.1845 
8 *29:58 *29:68 47.1379 
9 *29:68 *158:A1 20 
10 *29:58 *154:B2 20 
*END

*D_NET *30 0.00792807
*CONN
*I *157:A2 I *D sg13cmos5l_o21ai_1
*I *155:Y O *D sg13cmos5l_nand2b_1
*CAP
1 *157:A2 0.00038058
2 *155:Y 0.000428787
3 *30:18 0.00111125
4 *30:10 0.00115946
5 *157:A2 *139:B 0
6 *157:A2 *31:12 1.54556e-05
7 *157:A2 *32:10 0
8 *157:A2 *57:31 0
9 *30:10 *135:C 4.77154e-05
10 *30:10 *42:16 0.0018419
11 *30:10 *59:14 0.00151926
12 *30:18 *158:B1 0
13 *30:18 *172:RESET_B 0
14 *30:18 *43:8 0.00027326
15 *30:18 *43:21 0.000387107
16 *30:18 *63:8 0.00023777
17 *30:18 *63:67 0.000342908
18 *3:14 *157:A2 0
19 *17:6 *157:A2 0
20 *17:48 *30:18 0.000182634
21 *22:16 *30:18 0
*RES
1 *155:Y *30:10 48.8271 
2 *30:10 *30:18 48.3327 
3 *30:18 *157:A2 43.1312 
*END

*D_NET *31 0.0021598
*CONN
*I *157:B1 I *D sg13cmos5l_o21ai_1
*I *156:Y O *D sg13cmos5l_nand3_1
*CAP
1 *157:B1 0
2 *156:Y 0
3 *31:12 0.00107217
4 *31:6 0.00107217
5 *31:12 *43:21 0
6 *31:12 *57:31 0
7 *31:12 *64:8 0
8 *157:A2 *31:12 1.54556e-05
9 *3:14 *31:12 0
*RES
1 *156:Y *31:6 40 
2 *31:6 *31:12 32.0098 
3 *31:12 *157:B1 20 
*END

*D_NET *32 0.00350319
*CONN
*I *159:A2 I *D sg13cmos5l_a21oi_1
*I *157:Y O *D sg13cmos5l_o21ai_1
*CAP
1 *159:A2 2.85935e-05
2 *157:Y 0.000837373
3 *32:10 0.000865966
4 *159:A2 *55:10 4.78359e-05
5 *32:10 *190:A 0.000128565
6 *32:10 *35:10 0
7 *32:10 *40:21 0.000767768
8 *32:10 *48:10 0
9 *32:10 *48:12 0
10 *32:10 *53:8 0.000287758
11 *32:10 *61:67 0.000129186
12 *157:A2 *32:10 0
13 *3:14 *32:10 0
14 *12:8 *32:10 0.000394739
15 *14:12 *32:10 0
16 *29:40 *159:A2 1.54008e-05
*RES
1 *157:Y *32:10 49.9395 
2 *32:10 *159:A2 40.3193 
*END

*D_NET *33 0.00249546
*CONN
*I *190:A I *D sg13cmos5l_dlygate4sd3_1
*I *158:Y O *D sg13cmos5l_a21oi_1
*CAP
1 *190:A 0.000227103
2 *158:Y 0
3 *33:12 0.00114307
4 *33:6 0.000915965
5 *190:A *139:A 0
6 *190:A *139:B 0
7 *190:A *43:21 0
8 *33:12 *57:23 0
9 *33:12 *62:27 0
10 *33:12 *63:55 8.07629e-05
11 *3:14 *190:A 0
12 *22:16 *33:12 0
13 *32:10 *190:A 0.000128565
*RES
1 *158:Y *33:6 40 
2 *33:6 *33:12 49.8365 
3 *33:12 *190:A 41.9982 
*END

*D_NET *34 0.00655025
*CONN
*I *161:D I *D sg13cmos5l_nand4_1
*I *160:Y O *D sg13cmos5l_nor2b_1
*CAP
1 *161:D 0
2 *160:Y 0.000210844
3 *34:24 0.00104607
4 *34:10 0.00125691
5 *34:10 *156:B 0
6 *34:10 *160:A 0.000273273
7 *34:10 *165:B 0
8 *34:24 *143:A_N 0
9 *34:24 *160:A 0
10 *34:24 *43:21 0.000175853
11 *34:24 *48:10 0.000110999
12 *34:24 *48:12 0
13 *34:24 *48:51 0
14 *34:24 *54:8 0.000662194
15 *34:24 *63:26 0
16 *34:24 *63:67 0.00173583
17 *161:C *34:24 1.11321e-05
18 *183:A *34:10 8.02595e-05
19 *14:12 *34:24 0.000986885
20 *14:20 *34:24 0
*RES
1 *160:Y *34:10 42.369 
2 *34:10 *34:24 34.2758 
3 *34:24 *161:D 20 
*END

*D_NET *35 0.00361163
*CONN
*I *182:A I *D sg13cmos5l_dlygate4sd3_1
*I *161:Y O *D sg13cmos5l_nand4_1
*CAP
1 *182:A 2.69354e-05
2 *161:Y 0.000531276
3 *35:10 0.000558212
4 *182:A *184:A 0
5 *182:A *40:21 4.78524e-05
6 *35:10 *139:A 8.00842e-05
7 *35:10 *143:A_N 0.000111027
8 *35:10 *40:21 0.000767768
9 *35:10 *48:10 0.000714089
10 *35:10 *63:14 8.0194e-05
11 *35:10 *63:26 0.000208692
12 *14:12 *35:10 0.000182033
13 *17:6 *35:10 0.0001289
14 *17:14 *35:10 0.000111373
15 *17:20 *35:10 1.54556e-05
16 *19:20 *35:10 0
17 *20:12 *35:10 4.77425e-05
18 *32:10 *35:10 0
*RES
1 *161:Y *35:10 47.6529 
2 *35:10 *182:A 40.3193 
*END

*D_NET *36 0.000919765
*CONN
*I *165:B I *D sg13cmos5l_nand3_1
*I *162:Y O *D sg13cmos5l_nand3b_1
*CAP
1 *165:B 0.000333569
2 *162:Y 0.000333569
3 *165:B *156:B 0
4 *165:B *165:C 0.000252627
5 *165:B *48:51 0
6 *183:A *165:B 0
7 *34:10 *165:B 0
*RES
1 *162:Y *165:B 43.3063 
*END

*D_NET *37 0.000624314
*CONN
*I *164:A2 I *D sg13cmos5l_o21ai_1
*I *163:Y O *D sg13cmos5l_nor2b_1
*CAP
1 *164:A2 5.61002e-05
2 *163:Y 0.000216014
3 *37:8 0.000272115
4 *164:A2 *48:51 8.00842e-05
*RES
1 *163:Y *37:8 41.8334 
2 *37:8 *164:A2 40.5356 
*END

*D_NET *38 0.000893139
*CONN
*I *165:C I *D sg13cmos5l_nand3_1
*I *164:Y O *D sg13cmos5l_o21ai_1
*CAP
1 *165:C 0.000263996
2 *164:Y 0.000263996
3 *165:C *48:51 0.000112519
4 *165:B *165:C 0.000252627
*RES
1 *164:Y *165:C 42.9664 
*END

*D_NET *39 0.00470941
*CONN
*I *176:A I *D sg13cmos5l_buf_8
*I *175:A I *D sg13cmos5l_buf_8
*I *174:X O *D sg13cmos5l_buf_8
*CAP
1 *176:A 5.7933e-05
2 *175:A 0
3 *174:X 0.000168047
4 *39:38 0.00115706
5 *39:29 0.00119868
6 *39:13 0.000996182
7 *39:8 0.00106468
8 *39:13 *145:A 0
9 *39:13 *52:21 0
10 *39:13 *62:19 0
11 *39:29 *146:A 0
12 *39:38 *41:10 0
13 *39:38 *41:14 0
14 *146:B *39:29 6.68376e-05
15 *146:B *39:38 0
16 *11:20 *39:13 0
17 *15:25 *39:13 0
18 *20:27 *39:13 0
19 *28:14 *39:38 0
20 *29:34 *39:13 0
*RES
1 *174:X *39:8 40.5356 
2 *39:8 *39:13 7.7662 
3 *39:13 *175:A 40 
4 *174:X *39:29 20.9682 
5 *39:29 *39:38 29.1979 
6 *39:38 *176:A 40.5356 
*END

*D_NET *40 0.00441297
*CONN
*I *168:CLK I *D sg13cmos5l_dfrbpq_1
*I *167:CLK I *D sg13cmos5l_dfrbpq_1
*I *172:CLK I *D sg13cmos5l_dfrbpq_1
*I *173:CLK I *D sg13cmos5l_dfrbpq_1
*I *175:X O *D sg13cmos5l_buf_8
*CAP
1 *168:CLK 0
2 *167:CLK 0.000488365
3 *172:CLK 0
4 *173:CLK 0
5 *175:X 0
6 *40:30 0.000753673
7 *40:21 0.000377396
8 *40:8 0.000661118
9 *40:4 0.000549029
10 *167:CLK *167:RESET_B 0
11 *167:CLK *49:19 0
12 *167:CLK *49:94 0
13 *40:8 *172:RESET_B 0
14 *40:8 *173:RESET_B 0
15 *40:21 *172:RESET_B 0
16 *182:A *40:21 4.78524e-05
17 *14:20 *40:21 0
18 *32:10 *40:21 0.000767768
19 *35:10 *40:21 0.000767768
*RES
1 *175:X *40:4 20 
2 *40:4 *40:8 3.1106 
3 *40:8 *173:CLK 20 
4 *40:8 *40:21 45.8298 
5 *40:21 *172:CLK 20 
6 *40:4 *40:30 2.678 
7 *40:30 *167:CLK 24.6968 
8 *40:30 *168:CLK 20 
*END

*D_NET *41 0.00842736
*CONN
*I *170:CLK I *D sg13cmos5l_dfrbpq_1
*I *171:CLK I *D sg13cmos5l_dfrbpq_1
*I *169:CLK I *D sg13cmos5l_dfrbpq_1
*I *166:CLK I *D sg13cmos5l_dfrbpq_1
*I *176:X O *D sg13cmos5l_buf_8
*CAP
1 *170:CLK 0.000153649
2 *171:CLK 0.00075191
3 *169:CLK 0
4 *166:CLK 0.000526913
5 *176:X 0.000539191
6 *41:14 0.000775243
7 *41:12 0.00104757
8 *41:10 0.000740164
9 *166:CLK *49:40 0.00103437
10 *166:CLK *49:55 0.000500302
11 *166:CLK *57:23 0
12 *166:CLK *60:10 0
13 *170:CLK *148:B_N 0.000273383
14 *171:CLK *148:B_N 0.000635078
15 *171:CLK *44:6 8.02269e-05
16 *171:CLK *44:26 0.000533322
17 *171:CLK *44:43 0.000208747
18 *171:CLK *45:29 0
19 *171:CLK *67:10 0
20 *41:14 *49:55 0.000342036
21 *41:14 *60:10 0
22 *149:B1 *170:CLK 0.000209549
23 *150:B1 *41:10 0
24 *150:B1 *41:12 0
25 *150:B1 *41:14 0
26 *151:C *171:CLK 0
27 *9:20 *166:CLK 7.57164e-05
28 *17:48 *171:CLK 0
29 *21:18 *166:CLK 0
30 *26:12 *170:CLK 0
31 *28:14 *166:CLK 0
32 *39:38 *41:10 0
33 *39:38 *41:14 0
*RES
1 *176:X *41:10 46.4478 
2 *41:10 *41:12 0.5974 
3 *41:12 *41:14 3.3166 
4 *41:14 *166:CLK 47.0246 
5 *41:14 *169:CLK 40 
6 *41:12 *171:CLK 47.8898 
7 *41:10 *170:CLK 41.8334 
*END

*D_NET *42 0.00840805
*CONN
*I *181:A I *D sg13cmos5l_dlygate4sd3_1
*I *155:A_N I *D sg13cmos5l_nand2b_1
*I *156:B I *D sg13cmos5l_nand3_1
*I *167:Q O *D sg13cmos5l_dfrbpq_1
*CAP
1 *181:A 0.000445159
2 *155:A_N 0
3 *156:B 0.000945577
4 *167:Q 0.000337836
5 *42:16 0.00179507
6 *42:10 0.00163249
7 *156:B *155:B 0
8 *156:B *156:C 1.54556e-05
9 *156:B *160:A 0
10 *156:B *160:B_N 0
11 *156:B *162:B 0.000241088
12 *156:B *48:27 0.000128268
13 *156:B *48:29 7.97948e-05
14 *156:B *48:51 0
15 *156:B *61:37 0.000273328
16 *181:A *57:23 0
17 *42:10 *158:B1 0
18 *42:16 *135:C 0
19 *42:16 *155:B 1.54008e-05
20 *42:16 *49:23 0
21 *42:16 *57:8 0
22 *42:16 *57:23 0
23 *135:B *156:B 0
24 *136:B *156:B 0.000209413
25 *165:B *156:B 0
26 *14:35 *156:B 0
27 *16:10 *42:16 0.000447269
28 *17:20 *181:A 0
29 *21:18 *181:A 0
30 *22:8 *181:A 0
31 *30:10 *42:16 0.0018419
32 *34:10 *156:B 0
*RES
1 *167:Q *42:10 43.5123 
2 *42:10 *42:16 30.4648 
3 *42:16 *156:B 29.1464 
4 *42:16 *155:A_N 20 
5 *42:10 *181:A 43.7904 
*END

*D_NET *43 0.00310964
*CONN
*I *157:A1 I *D sg13cmos5l_o21ai_1
*I *188:A I *D sg13cmos5l_dlygate4sd3_1
*I *168:Q O *D sg13cmos5l_dfrbpq_1
*CAP
1 *157:A1 0
2 *188:A 0
3 *168:Q 0.0002455
4 *43:21 0.000891209
5 *43:8 0.00113671
6 *43:21 *139:A 0
7 *43:21 *172:RESET_B 0
8 *43:21 *172:D 0
9 *190:A *43:21 0
10 *3:14 *43:21 0
11 *30:18 *43:8 0.00027326
12 *30:18 *43:21 0.000387107
13 *31:12 *43:21 0
14 *34:24 *43:21 0.000175853
*RES
1 *168:Q *43:8 22.4308 
2 *43:8 *188:A 20 
3 *43:8 *43:21 48.0546 
4 *43:21 *157:A1 20 
*END

*D_NET *44 0.00579123
*CONN
*I *153:B I *D sg13cmos5l_and3_1
*I *151:B I *D sg13cmos5l_nand3_1
*I *147:B_N I *D sg13cmos5l_nor2b_1
*I *148:A I *D sg13cmos5l_nor2b_1
*I *187:A I *D sg13cmos5l_dlygate4sd3_1
*I *169:Q O *D sg13cmos5l_dfrbpq_1
*CAP
1 *153:B 0
2 *151:B 0
3 *147:B_N 0
4 *148:A 0.000139982
5 *187:A 0.000266417
6 *169:Q 0
7 *44:62 0.000581332
8 *44:43 0.000831752
9 *44:32 0.000239472
10 *44:26 0.000811038
11 *44:6 0.000487086
12 *44:4 0.000401833
13 *148:A *148:B_N 0
14 *187:A *146:A 0
15 *187:A *195:A 0
16 *44:6 *146:A 0
17 *44:6 *49:55 0
18 *44:26 *49:55 0
19 *44:26 *49:70 0
20 *44:32 *147:A 0.000424671
21 *44:32 *45:10 0
22 *44:32 *50:59 0.00012816
23 *44:62 *153:A 0.000112426
24 *44:62 *153:C 0.000112519
25 *44:62 *45:29 0.000128406
26 *44:62 *49:78 0
27 *151:C *44:43 1.54008e-05
28 *151:C *44:62 8.00842e-05
29 *171:CLK *44:6 8.02269e-05
30 *171:CLK *44:26 0.000533322
31 *171:CLK *44:43 0.000208747
32 *17:48 *44:62 0
33 *22:16 *44:62 0.00012816
34 *26:12 *148:A 8.01938e-05
35 *26:12 *187:A 0
36 *27:14 *44:26 0
37 *27:14 *44:43 0
38 *28:14 *44:26 0
*RES
1 *169:Q *44:4 20 
2 *44:4 *44:6 0.8802 
3 *44:6 *187:A 22.9252 
4 *44:6 *148:A 21.8746 
5 *44:4 *44:26 3.5638 
6 *44:26 *44:32 43.3166 
7 *44:32 *147:B_N 20 
8 *44:26 *44:43 2.5338 
9 *44:43 *151:B 20 
10 *44:43 *44:62 45.5208 
11 *44:62 *153:B 20 
*END

*D_NET *45 0.00311346
*CONN
*I *151:A I *D sg13cmos5l_nand3_1
*I *179:A I *D sg13cmos5l_dlygate4sd3_1
*I *170:Q O *D sg13cmos5l_dfrbpq_1
*CAP
1 *151:A 0
2 *179:A 0
3 *170:Q 0.000580555
4 *45:29 0.000525887
5 *45:14 0.000620269
6 *45:10 0.000674936
7 *45:14 *148:B_N 0.000177477
8 *45:29 *148:B_N 3.23417e-05
9 *45:29 *67:10 0
10 *149:B1 *45:14 0.000176994
11 *149:B1 *45:29 1.54008e-05
12 *171:CLK *45:29 0
13 *17:48 *45:29 0
14 *17:65 *45:29 0.000181192
15 *44:32 *45:10 0
16 *44:62 *45:29 0.000128406
*RES
1 *170:Q *45:10 43.605 
2 *45:10 *45:14 21.1845 
3 *45:14 *179:A 20 
4 *45:14 *45:29 45.0676 
5 *45:29 *151:A 20 
*END

*D_NET *46 0.000603742
*CONN
*I *192:A I *D sg13cmos5l_dlygate4sd3_1
*I *171:Q O *D sg13cmos5l_dfrbpq_1
*CAP
1 *192:A 0.000134162
2 *171:Q 0.000167709
3 *46:8 0.000301871
4 *17:65 *46:8 0
*RES
1 *171:Q *46:8 42.0806 
2 *46:8 *192:A 41.4008 
*END

*D_NET *47 0.000587749
*CONN
*I *189:A I *D sg13cmos5l_dlygate4sd3_1
*I *172:Q O *D sg13cmos5l_dfrbpq_1
*CAP
1 *189:A 0.00017333
2 *172:Q 0.00017333
3 *3:14 *189:A 0
4 *18:28 *189:A 0.000241088
*RES
1 *172:Q *189:A 41.6171 
*END

*D_NET *48 0.00897119
*CONN
*I *184:A I *D sg13cmos5l_dlygate4sd3_1
*I *164:B1 I *D sg13cmos5l_o21ai_1
*I *162:C I *D sg13cmos5l_nand3b_1
*I *155:B I *D sg13cmos5l_nand2b_1
*I *160:A I *D sg13cmos5l_nor2b_1
*I *173:Q O *D sg13cmos5l_dfrbpq_1
*CAP
1 *184:A 0.000262753
2 *164:B1 0
3 *162:C 0
4 *155:B 0.000382468
5 *160:A 0.000338299
6 *173:Q 0.000352982
7 *48:51 0.000310832
8 *48:29 0.000465811
9 *48:27 0.00047476
10 *48:12 0.000950536
11 *48:10 0.00114739
12 *155:B *135:C 0.000241815
13 *155:B *162:B 0.000241088
14 *155:B *61:28 0.000305772
15 *160:A *156:C 0
16 *160:A *160:B_N 0
17 *48:10 *143:A_N 0
18 *48:12 *53:8 0
19 *48:12 *54:8 0.00066014
20 *48:27 *61:37 0.000143368
21 *48:29 *61:28 1.54008e-05
22 *48:29 *61:37 0.000129077
23 *48:51 *53:8 0
24 *156:B *155:B 0
25 *156:B *160:A 0
26 *156:B *48:27 0.000128268
27 *156:B *48:29 7.97948e-05
28 *156:B *48:51 0
29 *164:A2 *48:51 8.00842e-05
30 *165:B *48:51 0
31 *165:C *48:51 0.000112519
32 *182:A *184:A 0
33 *191:A *184:A 0
34 *14:12 *48:10 0.000959054
35 *14:12 *48:12 7.52158e-05
36 *32:10 *48:10 0
37 *32:10 *48:12 0
38 *34:10 *160:A 0.000273273
39 *34:24 *160:A 0
40 *34:24 *48:10 0.000110999
41 *34:24 *48:12 0
42 *34:24 *48:51 0
43 *35:10 *48:10 0.000714089
44 *42:16 *155:B 1.54008e-05
*RES
1 *173:Q *48:10 45.7371 
2 *48:10 *48:12 5.2942 
3 *48:12 *160:A 43.1106 
4 *48:12 *48:27 20.9682 
5 *48:27 *48:29 0.9682 
6 *48:29 *155:B 23.9964 
7 *48:29 *162:C 20 
8 *48:27 *48:51 42.9046 
9 *48:51 *164:B1 20 
10 *48:10 *184:A 42.178 
*END

*D_NET *49 0.0114608
*CONN
*I *173:RESET_B I *D sg13cmos5l_dfrbpq_1
*I *168:RESET_B I *D sg13cmos5l_dfrbpq_1
*I *172:RESET_B I *D sg13cmos5l_dfrbpq_1
*I *171:RESET_B I *D sg13cmos5l_dfrbpq_1
*I *170:RESET_B I *D sg13cmos5l_dfrbpq_1
*I *169:RESET_B I *D sg13cmos5l_dfrbpq_1
*I *166:RESET_B I *D sg13cmos5l_dfrbpq_1
*I *167:RESET_B I *D sg13cmos5l_dfrbpq_1
*I *194:X O *D sg13cmos5l_buf_1
*CAP
1 *173:RESET_B 0.000438513
2 *168:RESET_B 0
3 *172:RESET_B 0.000892775
4 *171:RESET_B 0
5 *170:RESET_B 0
6 *169:RESET_B 0
7 *166:RESET_B 0
8 *167:RESET_B 5.50336e-05
9 *194:X 0.00066409
10 *49:94 0.000643225
11 *49:78 0.000244135
12 *49:70 0.000717306
13 *49:55 0.000976049
14 *49:40 0.000954637
15 *49:32 0.0014804
16 *49:23 0.000367046
17 *49:19 0.00061015
18 *49:10 0.000229291
19 *49:8 0.00066409
20 *49:8 *62:82 0
21 *49:23 *57:8 0
22 *49:23 *57:23 0
23 *49:32 *57:23 0
24 *49:40 *57:23 0
25 *49:40 *60:10 0
26 *49:78 *133:A 0
27 *49:78 *67:10 0
28 *49:94 *166:D 0
29 *166:CLK *49:40 0.00103437
30 *166:CLK *49:55 0.000500302
31 *167:CLK *167:RESET_B 0
32 *167:CLK *49:19 0
33 *167:CLK *49:94 0
34 *6:8 *49:8 0
35 *7:10 *49:8 0
36 *8:8 *49:8 0
37 *17:48 *49:78 0.000182291
38 *18:28 *49:40 4.77425e-05
39 *18:28 *49:55 4.77425e-05
40 *28:14 *49:55 0.000177032
41 *28:14 *49:70 0.000112399
42 *29:40 *173:RESET_B 0
43 *29:68 *49:40 4.77425e-05
44 *29:68 *49:55 3.23694e-05
45 *30:18 *172:RESET_B 0
46 *40:8 *172:RESET_B 0
47 *40:8 *173:RESET_B 0
48 *40:21 *172:RESET_B 0
49 *41:14 *49:55 0.000342036
50 *42:16 *49:23 0
51 *43:21 *172:RESET_B 0
52 *44:6 *49:55 0
53 *44:26 *49:55 0
54 *44:26 *49:70 0
55 *44:62 *49:78 0
*RES
1 *194:X *49:8 47.7662 
2 *49:8 *49:10 20 
3 *49:10 *167:RESET_B 20.5356 
4 *49:10 *49:19 1.8334 
5 *49:19 *49:23 22.3278 
6 *49:23 *166:RESET_B 40 
7 *49:23 *49:32 1.339 
8 *49:32 *49:40 26.4272 
9 *49:40 *169:RESET_B 20 
10 *49:40 *49:55 45.7474 
11 *49:55 *170:RESET_B 20 
12 *49:55 *49:70 45.3148 
13 *49:70 *49:78 42.2454 
14 *49:78 *171:RESET_B 20 
15 *49:32 *172:RESET_B 47.8898 
16 *49:19 *49:94 0.8214 
17 *49:94 *168:RESET_B 20 
18 *49:94 *173:RESET_B 23.9964 
*END

*D_NET *50 0.00860616
*CONN
*I *147:A I *D sg13cmos5l_nor2b_1
*I *148:B_N I *D sg13cmos5l_nor2b_1
*I *146:A I *D sg13cmos5l_nand2_1
*I *133:A I *D sg13cmos5l_nand4_1
*I *153:A I *D sg13cmos5l_and3_1
*I *179:X O *D sg13cmos5l_dlygate4sd3_1
*CAP
1 *147:A 0.000187853
2 *148:B_N 0.000376611
3 *146:A 0.00090776
4 *133:A 0.000253422
5 *153:A 0.000166242
6 *179:X 2.41961e-05
7 *50:59 0.000702527
8 *50:18 0.000744351
9 *50:10 0.0013537
10 *50:8 0.000283511
11 *133:A *153:C 0
12 *133:A *58:39 0
13 *133:A *66:12 0
14 *146:A *170:D 6.98393e-05
15 *146:A *58:10 4.76327e-05
16 *153:A *153:C 0
17 *50:18 *67:10 0
18 *146:B *146:A 0
19 *148:A *148:B_N 0
20 *149:B1 *148:B_N 0
21 *150:A2 *146:A 8.0216e-05
22 *152:A1 *146:A 0.000176863
23 *170:CLK *148:B_N 0.000273383
24 *171:CLK *148:B_N 0.000635078
25 *187:A *146:A 0
26 *193:A *50:18 0.000240957
27 *18:28 *133:A 0
28 *20:27 *50:10 0.00012816
29 *20:27 *50:18 0.00023464
30 *22:20 *153:A 0.000144768
31 *22:20 *50:18 0.00030564
32 *22:41 *50:10 0.000159096
33 *22:41 *50:18 0.00023464
34 *27:14 *50:10 0
35 *28:14 *146:A 0
36 *39:29 *146:A 0
37 *44:6 *146:A 0
38 *44:32 *147:A 0.000424671
39 *44:32 *50:59 0.00012816
40 *44:62 *153:A 0.000112426
41 *45:14 *148:B_N 0.000177477
42 *45:29 *148:B_N 3.23417e-05
43 *49:78 *133:A 0
*RES
1 *179:X *50:8 40.3193 
2 *50:8 *50:10 1.5862 
3 *50:10 *50:18 24.1715 
4 *50:18 *153:A 21.751 
5 *50:18 *133:A 22.4308 
6 *50:10 *146:A 48.8501 
7 *50:8 *50:59 1.5862 
8 *50:59 *148:B_N 44.6298 
9 *50:59 *147:A 42.3999 
*END

*D_NET *51 0.000251764
*CONN
*I *170:D I *D sg13cmos5l_dfrbpq_1
*I *180:X O *D sg13cmos5l_dlygate4sd3_1
*CAP
1 *170:D 9.09624e-05
2 *180:X 9.09624e-05
3 *146:A *170:D 6.98393e-05
*RES
1 *180:X *170:D 40.9167 
*END

*D_NET *52 0.00310765
*CONN
*I *178:A I *D sg13cmos5l_buf_1
*I *161:B I *D sg13cmos5l_nand4_1
*I *181:X O *D sg13cmos5l_dlygate4sd3_1
*CAP
1 *178:A 0
2 *161:B 0
3 *181:X 0.000172164
4 *52:21 0.00114474
5 *52:6 0.0013169
6 *52:6 *158:B1 0.000208576
7 *52:6 *63:26 3.54665e-05
8 *52:21 *62:19 0
9 *52:21 *63:26 5.32778e-05
10 *161:C *52:6 0.000176522
11 *39:13 *52:21 0
*RES
1 *181:X *52:6 21.8334 
2 *52:6 *161:B 20 
3 *52:6 *52:21 49.0846 
4 *52:21 *178:A 20 
*END

*D_NET *53 0.00169187
*CONN
*I *165:A I *D sg13cmos5l_nand3_1
*I *182:X O *D sg13cmos5l_dlygate4sd3_1
*CAP
1 *165:A 0
2 *182:X 0.000702056
3 *53:8 0.000702056
4 *3:14 *53:8 0
5 *32:10 *53:8 0.000287758
6 *48:12 *53:8 0
7 *48:51 *53:8 0
*RES
1 *182:X *53:8 46.5302 
2 *53:8 *165:A 40 
*END

*D_NET *54 0.0023226
*CONN
*I *173:D I *D sg13cmos5l_dfrbpq_1
*I *183:X O *D sg13cmos5l_dlygate4sd3_1
*CAP
1 *173:D 0.000134297
2 *183:X 0.000124746
3 *54:8 0.000259043
4 *173:D *55:10 0.000241088
5 *29:40 *173:D 0.000241088
6 *34:24 *54:8 0.000662194
7 *48:12 *54:8 0.00066014
*RES
1 *183:X *54:8 43.0694 
2 *54:8 *173:D 41.6171 
*END

*D_NET *55 0.00437391
*CONN
*I *134:B I *D sg13cmos5l_nand2b_1
*I *184:X O *D sg13cmos5l_dlygate4sd3_1
*CAP
1 *134:B 0.000404816
2 *184:X 0.000887519
3 *55:10 0.00129233
4 *134:B *61:24 0.000553661
5 *134:B *61:59 7.52158e-05
6 *134:B *62:19 0
7 *134:B *62:70 0.000424671
8 *134:B *62:74 0.000446767
9 *55:10 *159:B1 0
10 *159:A2 *55:10 4.78359e-05
11 *173:D *55:10 0.000241088
12 *29:40 *55:10 0
*RES
1 *184:X *55:10 45.6444 
2 *55:10 *134:B 45.5414 
*END

*D_NET *56 0.00106211
*CONN
*I *135:C I *D sg13cmos5l_nor3_2
*I *185:X O *D sg13cmos5l_dlygate4sd3_1
*CAP
1 *135:C 0.000386289
2 *185:X 0.000386289
3 *135:B *135:C 0
4 *155:B *135:C 0.000241815
5 *16:10 *135:C 0
6 *30:10 *135:C 4.77154e-05
7 *42:16 *135:C 0
*RES
1 *185:X *135:C 43.6977 
*END

*D_NET *57 0.00478895
*CONN
*I *141:A I *D sg13cmos5l_nor2_1
*I *166:D I *D sg13cmos5l_dfrbpq_1
*I *186:X O *D sg13cmos5l_dlygate4sd3_1
*CAP
1 *141:A 0
2 *166:D 3.10228e-05
3 *186:X 7.73318e-05
4 *57:31 0.00012127
5 *57:23 0.00173608
6 *57:8 0.00172317
7 *57:23 *61:67 0
8 *157:A2 *57:31 0
9 *166:CLK *57:23 0
10 *181:A *57:23 0
11 *3:14 *57:31 0
12 *9:20 *57:23 0.00110008
13 *18:28 *57:31 0
14 *22:16 *57:23 0
15 *31:12 *57:31 0
16 *33:12 *57:23 0
17 *42:16 *57:8 0
18 *42:16 *57:23 0
19 *49:23 *57:8 0
20 *49:23 *57:23 0
21 *49:32 *57:23 0
22 *49:40 *57:23 0
23 *49:94 *166:D 0
*RES
1 *186:X *57:8 40.5974 
2 *57:8 *166:D 40.3193 
3 *57:8 *57:23 35.2852 
4 *57:23 *57:31 41.133 
5 *57:31 *141:A 20 
*END

*D_NET *58 0.00482758
*CONN
*I *133:B I *D sg13cmos5l_nand4_1
*I *140:A I *D sg13cmos5l_xnor2_1
*I *187:X O *D sg13cmos5l_dlygate4sd3_1
*CAP
1 *133:B 0
2 *140:A 0.000339191
3 *187:X 0.000122724
4 *58:39 0.00116135
5 *58:10 0.00162327
6 *140:A *60:10 0
7 *58:10 *60:10 0.000288087
8 *58:39 *133:D 0
9 *58:39 *153:C 0.000338245
10 *133:A *58:39 0
11 *146:A *58:10 4.76327e-05
12 *146:B *58:10 0
13 *146:B *58:39 0.000473051
14 *150:B1 *58:10 0
15 *150:A1 *140:A 0
16 *150:A2 *58:39 0
17 *180:A *58:39 2.21754e-05
18 *4:8 *140:A 0
19 *17:20 *140:A 0
20 *17:35 *140:A 2.7428e-05
21 *18:28 *58:39 4.70653e-05
22 *22:20 *58:39 0.000129028
23 *29:12 *58:39 8.00842e-05
24 *29:68 *140:A 0.000128248
*RES
1 *187:X *58:10 41.6583 
2 *58:10 *140:A 43.4376 
3 *58:10 *58:39 31.1549 
4 *58:39 *133:B 20 
*END

*D_NET *59 0.00411275
*CONN
*I *177:A I *D sg13cmos5l_buf_1
*I *188:X O *D sg13cmos5l_dlygate4sd3_1
*CAP
1 *177:A 0
2 *188:X 0.000249919
3 *59:14 0.00104683
4 *59:8 0.00129675
5 *59:14 *138:B 0
6 *59:14 *62:76 0
7 *8:8 *59:14 0
8 *16:10 *59:14 0
9 *30:10 *59:14 0.00151926
*RES
1 *188:X *59:8 42.0497 
2 *59:8 *59:14 30.0013 
3 *59:14 *177:A 20 
*END

*D_NET *60 0.00214542
*CONN
*I *195:A I *D sg13cmos5l_buf_1
*I *166:Q O *D sg13cmos5l_dfrbpq_1
*CAP
1 *195:A 9.58575e-05
2 *166:Q 0.000661791
3 *60:10 0.000757648
4 *140:A *60:10 0
5 *150:B1 *60:10 0
6 *150:A1 *60:10 0
7 *166:CLK *60:10 0
8 *187:A *195:A 0
9 *17:20 *60:10 0
10 *26:12 *195:A 0
11 *29:68 *60:10 0.000342034
12 *41:14 *60:10 0
13 *49:40 *60:10 0
14 *58:10 *60:10 0.000288087
*RES
1 *166:Q *60:10 47.5602 
2 *60:10 *195:A 40.9682 
*END

*D_NET *61 0.013023
*CONN
*I *163:B_N I *D sg13cmos5l_nor2b_1
*I *134:A_N I *D sg13cmos5l_nand2b_1
*I *145:B I *D sg13cmos5l_nand2_1
*I *139:B I *D sg13cmos5l_and2_1
*I *156:C I *D sg13cmos5l_nand3_1
*I *160:B_N I *D sg13cmos5l_nor2b_1
*I *162:A_N I *D sg13cmos5l_nand3b_1
*I *138:B I *D sg13cmos5l_xor2_1
*I *177:X O *D sg13cmos5l_buf_1
*CAP
1 *163:B_N 0.00020846
2 *134:A_N 0
3 *145:B 7.50163e-05
4 *139:B 0.000155649
5 *156:C 3.55224e-05
6 *160:B_N 0.00014973
7 *162:A_N 0
8 *138:B 0.000139732
9 *177:X 0.000319021
10 *61:89 0.000236007
11 *61:67 0.000680538
12 *61:59 0.001133
13 *61:37 0.000677648
14 *61:28 0.000696947
15 *61:24 0.000956352
16 *61:20 0.000425543
17 *138:B *62:76 0
18 *139:B *139:A 0.000143577
19 *163:B_N *163:A 0
20 *61:20 *62:76 0
21 *61:37 *63:67 0
22 *61:59 *145:A 0.000107498
23 *61:59 *62:19 0.00193985
24 *61:67 *62:27 0
25 *61:89 *62:76 0
26 *134:B *61:24 0.000553661
27 *134:B *61:59 7.52158e-05
28 *135:B *138:B 0
29 *155:B *61:28 0.000305772
30 *156:B *156:C 1.54556e-05
31 *156:B *160:B_N 0
32 *156:B *61:37 0.000273328
33 *157:A2 *139:B 0
34 *160:A *156:C 0
35 *160:A *160:B_N 0
36 *190:A *139:B 0
37 *3:14 *61:67 0
38 *14:35 *163:B_N 0
39 *14:35 *61:20 0
40 *15:8 *163:B_N 0
41 *15:14 *61:20 0
42 *15:25 *61:59 0.00231173
43 *17:6 *139:B 0.000143391
44 *17:14 *61:67 0.000278129
45 *17:20 *145:B 0.000112426
46 *22:8 *145:B 1.54008e-05
47 *22:16 *61:67 0.00044137
48 *32:10 *61:67 0.000129186
49 *48:27 *61:37 0.000143368
50 *48:29 *61:28 1.54008e-05
51 *48:29 *61:37 0.000129077
52 *57:23 *61:67 0
53 *59:14 *138:B 0
*RES
1 *177:X *138:B 41.4008 
2 *177:X *61:20 21.751 
3 *61:20 *61:24 22.8222 
4 *61:24 *61:28 22.0497 
5 *61:28 *162:A_N 20 
6 *61:28 *61:37 5.0264 
7 *61:37 *160:B_N 21.8746 
8 *61:37 *156:C 20.5356 
9 *61:24 *61:59 11.6184 
10 *61:59 *61:67 44.7513 
11 *61:67 *139:B 41.751 
12 *61:59 *145:B 40.7519 
13 *61:20 *61:89 0.3193 
14 *61:89 *134:A_N 20 
15 *61:89 *163:B_N 21.8334 
*END

*D_NET *62 0.0120333
*CONN
*I *162:B I *D sg13cmos5l_nand3b_1
*I *163:A I *D sg13cmos5l_nor2b_1
*I *138:A I *D sg13cmos5l_xor2_1
*I *135:A I *D sg13cmos5l_nor3_2
*I *145:A I *D sg13cmos5l_nand2_1
*I *139:A I *D sg13cmos5l_and2_1
*I *143:A_N I *D sg13cmos5l_nand2b_1
*I *137:A I *D sg13cmos5l_nor2_1
*I *178:X O *D sg13cmos5l_buf_1
*CAP
1 *162:B 0.000134297
2 *163:A 0.000182199
3 *138:A 0
4 *135:A 0
5 *145:A 0.000179783
6 *139:A 0.00023969
7 *143:A_N 0.000223617
8 *137:A 0.00060005
9 *178:X 0
10 *62:82 0.000213726
11 *62:76 0.000633382
12 *62:74 0.000858694
13 *62:70 0.000645808
14 *62:29 0.000463307
15 *62:27 0.000431649
16 *62:19 0.00132519
17 *62:4 0.00156848
18 *143:A_N *63:14 6.92731e-05
19 *143:A_N *63:26 1.54008e-05
20 *62:27 *133:D 7.68089e-05
21 *62:27 *63:55 8.09323e-05
22 *134:B *62:19 0
23 *134:B *62:70 0.000424671
24 *134:B *62:74 0.000446767
25 *138:B *62:76 0
26 *139:B *139:A 0.000143577
27 *155:B *162:B 0.000241088
28 *156:B *162:B 0.000241088
29 *163:B_N *163:A 0
30 *190:A *139:A 0
31 *8:8 *62:82 0
32 *14:12 *62:27 7.68089e-05
33 *15:25 *145:A 0
34 *17:6 *139:A 0
35 *17:14 *62:27 0.000278534
36 *33:12 *62:27 0
37 *34:24 *143:A_N 0
38 *35:10 *139:A 8.00842e-05
39 *35:10 *143:A_N 0.000111027
40 *39:13 *145:A 0
41 *39:13 *62:19 0
42 *43:21 *139:A 0
43 *48:10 *143:A_N 0
44 *49:8 *62:82 0
45 *52:21 *62:19 0
46 *59:14 *62:76 0
47 *61:20 *62:76 0
48 *61:59 *145:A 0.000107498
49 *61:59 *62:19 0.00193985
50 *61:67 *62:27 0
51 *61:89 *62:76 0
*RES
1 *178:X *62:4 20 
2 *62:4 *137:A 24.2642 
3 *62:4 *62:19 29.0022 
4 *62:19 *62:27 44.1303 
5 *62:27 *62:29 20 
6 *62:29 *143:A_N 22.2763 
7 *62:29 *139:A 22.3999 
8 *62:19 *145:A 41.6274 
9 *62:4 *62:70 22.8325 
10 *62:70 *62:74 23.0694 
11 *62:74 *62:76 4.2127 
12 *62:76 *62:82 42.3278 
13 *62:82 *135:A 20 
14 *62:76 *138:A 20 
15 *62:74 *163:A 21.6171 
16 *62:70 *162:B 41.6171 
*END

*D_NET *63 0.0102801
*CONN
*I *133:D I *D sg13cmos5l_nand4_1
*I *156:A I *D sg13cmos5l_nand3_1
*I *143:B I *D sg13cmos5l_nand2b_1
*I *161:A I *D sg13cmos5l_nand4_1
*I *158:B1 I *D sg13cmos5l_a21oi_1
*I *189:X O *D sg13cmos5l_dlygate4sd3_1
*CAP
1 *133:D 0.000344131
2 *156:A 0
3 *143:B 0
4 *161:A 0
5 *158:B1 0.000717118
6 *189:X 8.03593e-05
7 *63:67 0.00135579
8 *63:55 0.00174211
9 *63:26 0.000917063
10 *63:14 0.000264056
11 *63:8 0.000186659
12 *143:A_N *63:14 6.92731e-05
13 *143:A_N *63:26 1.54008e-05
14 *14:12 *133:D 0
15 *14:12 *63:67 0
16 *14:20 *63:67 0.000181366
17 *17:20 *158:B1 0
18 *17:20 *63:26 0
19 *17:48 *133:D 0.000610641
20 *18:28 *133:D 0.000144742
21 *19:8 *133:D 0.000342906
22 *22:16 *63:8 2.19989e-05
23 *29:68 *158:B1 0.000145268
24 *30:18 *158:B1 0
25 *30:18 *63:8 0.00023777
26 *30:18 *63:67 0.000342908
27 *33:12 *63:55 8.07629e-05
28 *34:24 *63:26 0
29 *34:24 *63:67 0.00173583
30 *35:10 *63:14 8.0194e-05
31 *35:10 *63:26 0.000208692
32 *42:10 *158:B1 0
33 *52:6 *158:B1 0.000208576
34 *52:6 *63:26 3.54665e-05
35 *52:21 *63:26 5.32778e-05
36 *58:39 *133:D 0
37 *61:37 *63:67 0
38 *62:27 *133:D 7.68089e-05
39 *62:27 *63:55 8.09323e-05
*RES
1 *189:X *63:8 41.0918 
2 *63:8 *63:14 20.8549 
3 *63:14 *63:26 2.45655 
4 *63:26 *158:B1 26.8083 
5 *63:26 *161:A 20 
6 *63:14 *143:B 20 
7 *63:8 *63:55 40.5356 
8 *63:55 *63:67 34.0801 
9 *63:67 *156:A 20 
10 *63:55 *133:D 44.6041 
*END

*D_NET *64 0.00119287
*CONN
*I *159:B1 I *D sg13cmos5l_a21oi_1
*I *190:X O *D sg13cmos5l_dlygate4sd3_1
*CAP
1 *159:B1 0.000162556
2 *190:X 0.00043388
3 *64:8 0.000596436
4 *3:14 *64:8 0
5 *31:12 *64:8 0
6 *55:10 *159:B1 0
*RES
1 *190:X *64:8 43.811 
2 *64:8 *159:B1 40.4768 
*END

*D_NET *65 0.000385701
*CONN
*I *172:D I *D sg13cmos5l_dfrbpq_1
*I *191:X O *D sg13cmos5l_dlygate4sd3_1
*CAP
1 *172:D 0.00019285
2 *191:X 0.00019285
3 *43:21 *172:D 0
*RES
1 *191:X *172:D 41.7819 
*END

*D_NET *66 0.00200659
*CONN
*I *142:A I *D sg13cmos5l_inv_1
*I *153:C I *D sg13cmos5l_and3_1
*I *133:C I *D sg13cmos5l_nand4_1
*I *192:X O *D sg13cmos5l_dlygate4sd3_1
*CAP
1 *142:A 0
2 *153:C 0.00022253
3 *133:C 6.24547e-05
4 *192:X 0.000247249
5 *66:16 0.000385413
6 *66:12 0.00024568
7 *66:8 0.0003925
8 *66:8 *67:10 0
9 *133:A *153:C 0
10 *133:A *66:12 0
11 *153:A *153:C 0
12 *17:48 *66:8 0
13 *18:28 *66:12 0
14 *19:8 *66:16 0
15 *44:62 *153:C 0.000112519
16 *58:39 *153:C 0.000338245
*RES
1 *192:X *66:8 43.0694 
2 *66:8 *66:12 21.4008 
3 *66:12 *66:16 21.0918 
4 *66:16 *133:C 40.5974 
5 *66:16 *153:C 42.266 
6 *66:12 *142:A 20 
*END

*D_NET *67 0.000717035
*CONN
*I *171:D I *D sg13cmos5l_dfrbpq_1
*I *193:X O *D sg13cmos5l_dlygate4sd3_1
*CAP
1 *171:D 0
2 *193:X 0.000358517
3 *67:10 0.000358517
4 *171:CLK *67:10 0
5 *17:48 *67:10 0
6 *45:29 *67:10 0
7 *49:78 *67:10 0
8 *50:18 *67:10 0
9 *66:8 *67:10 0
*RES
1 *193:X *67:10 43.4196 
2 *67:10 *171:D 40 
*END
