*SPEF "ieee 1481-1999"
*DESIGN "dac"
*DATE "00:24:43 Thursday September 24, 2026"
*VENDOR "The OpenROAD Project"
*PROGRAM "OpenROAD"
*VERSION "dcf36133a369abc8f3c5e5738cd4d82e4903c0e0"
*DESIGN_FLOW "NAME_SCOPE LOCAL" "PIN_CAP NONE"
*DIVIDER /
*DELIMITER :
*BUS_DELIMITER []
*T_UNIT 1 NS
*C_UNIT 1 PF
*R_UNIT 1 OHM
*L_UNIT 1 HENRY

*NAME_MAP
*3 clk_fb
*4 clk_ref
*5 dac_out
*6 rst_ni
*7 vctrl_b_in
*8 vctrl_b_out
*9 vctrl_in
*10 vctrl_out
*11 _0000_
*12 _0001_
*13 _0002_
*14 _0003_
*15 _0004_
*16 _0005_
*17 _0006_
*18 _0007_
*19 _0008_
*20 _0009_
*21 _0010_
*22 _0011_
*23 _0012_
*24 _0013_
*25 _0014_
*26 _0015_
*27 _0016_
*28 _0019_
*29 _0020_
*30 _0021_
*31 _0022_
*32 _0023_
*33 _0024_
*34 _0025_
*35 _0027_
*36 _0028_
*37 _0029_
*38 _0030_
*39 _0031_
*40 _0032_
*41 _0033_
*42 _0034_
*43 _0035_
*44 _0036_
*45 _0037_
*46 _0038_
*47 _0039_
*48 _0040_
*49 _0041_
*50 _0042_
*51 _0043_
*52 _0044_
*53 _0045_
*54 _0046_
*55 _0047_
*56 _0048_
*57 _0049_
*58 _0050_
*59 _0051_
*60 _0052_
*61 _0053_
*62 _0054_
*63 _0055_
*64 _0056_
*65 _0057_
*66 _0058_
*67 _0059_
*68 _0060_
*69 _0061_
*70 _0062_
*71 _0063_
*72 _0064_
*73 _0065_
*74 _0066_
*75 _0067_
*76 _0068_
*77 _0069_
*78 _0070_
*79 _0071_
*80 _0072_
*81 _0073_
*82 _0074_
*83 _0075_
*84 _0076_
*85 _0077_
*86 _0078_
*87 _0079_
*88 _0080_
*89 _0081_
*90 _0082_
*91 _0083_
*92 _0084_
*93 _0085_
*94 _0086_
*95 _0087_
*96 _0088_
*97 _0089_
*98 _0090_
*99 _0091_
*100 _0092_
*101 _0093_
*102 _0094_
*103 _0095_
*104 _0096_
*105 _0097_
*106 _0098_
*107 _0099_
*108 _0100_
*109 _0101_
*110 _0102_
*111 _0103_
*112 _0104_
*113 _0105_
*114 _0106_
*115 _0107_
*116 _0108_
*117 _0109_
*118 _0110_
*119 _0111_
*120 _0112_
*121 _0113_
*122 _0114_
*123 _0115_
*124 _0116_
*125 _0117_
*126 _0118_
*127 _0119_
*128 _0120_
*129 _0121_
*130 _0122_
*131 _0123_
*132 _0124_
*133 _0125_
*134 _0126_
*135 _0127_
*136 _0128_
*137 _0129_
*138 _0130_
*139 _0131_
*140 _0132_
*141 _0133_
*142 _0134_
*143 _0135_
*144 _0136_
*145 _0137_
*146 _0138_
*147 _0139_
*148 _0140_
*149 _0141_
*150 _0142_
*151 _0143_
*152 _0144_
*153 _0145_
*154 _0146_
*155 _0147_
*156 _0148_
*157 _0149_
*158 _0150_
*159 _0151_
*160 _0152_
*161 _0153_
*162 _0154_
*163 _0155_
*164 _0156_
*165 _0157_
*166 _0158_
*167 _0159_
*168 _0160_
*169 _0161_
*170 _0162_
*171 _0163_
*172 _0164_
*173 _0165_
*174 _0166_
*175 _0167_
*176 _0168_
*177 _0169_
*178 _0170_
*179 _0171_
*180 _0172_
*181 _0173_
*182 _0174_
*183 _0175_
*184 _0176_
*185 _0177_
*186 _0178_
*187 _0179_
*188 _0180_
*189 _0181_
*190 _0182_
*191 _0183_
*192 _0184_
*193 _0185_
*194 _0186_
*195 _0187_
*196 _0188_
*197 _0189_
*198 _0190_
*199 _0191_
*200 _0192_
*201 _0193_
*202 _0194_
*203 _0195_
*204 _0196_
*205 _0197_
*206 _0198_
*207 _0199_
*208 _0200_
*209 _0201_
*210 _0202_
*211 _0203_
*212 _0204_
*213 _0205_
*214 _0206_
*215 _0207_
*216 _0208_
*217 _0209_
*218 _0210_
*219 _0211_
*220 _0212_
*221 _0213_
*222 _0214_
*223 _0215_
*224 _0216_
*225 _0217_
*226 _0218_
*227 _0219_
*228 _0220_
*229 _0221_
*230 _0222_
*231 _0223_
*232 _0224_
*233 _0225_
*234 _0226_
*235 _0227_
*236 _0228_
*237 _0229_
*238 _0230_
*239 _0231_
*240 _0232_
*241 _0233_
*242 _0234_
*243 _0235_
*244 _0236_
*245 _0237_
*246 _0238_
*247 _0239_
*248 _0240_
*249 _0241_
*250 _0242_
*251 _0243_
*252 _0244_
*253 _0245_
*254 _0246_
*255 _0247_
*256 _0248_
*257 _0249_
*258 _0250_
*259 _0251_
*260 _0252_
*261 _0253_
*262 _0254_
*263 _0255_
*264 _0256_
*265 _0257_
*266 _0258_
*267 _0259_
*268 _0260_
*269 _0261_
*270 _0262_
*271 _0263_
*272 _0264_
*273 _0265_
*274 _0266_
*275 _0267_
*276 _0268_
*277 _0269_
*278 _0270_
*279 _0271_
*280 _0272_
*281 _0273_
*282 _0274_
*283 _0275_
*284 _0276_
*285 _0277_
*286 _0278_
*287 _0279_
*288 _0280_
*289 _0281_
*290 _0282_
*291 _0283_
*292 _0284_
*293 _0285_
*294 _0286_
*295 _0287_
*296 _0288_
*297 _0289_
*298 _0290_
*299 _0291_
*300 _0292_
*301 _0293_
*302 _0294_
*303 _0295_
*304 _0296_
*305 _0297_
*306 _0298_
*307 _0299_
*308 _0300_
*309 _0301_
*310 _0302_
*311 _0303_
*312 _0304_
*313 _0305_
*314 _0306_
*315 _0307_
*316 _0308_
*317 _0309_
*318 _0310_
*319 _0311_
*320 _0312_
*321 _0313_
*322 _0314_
*323 _0315_
*324 _0316_
*325 _0317_
*326 _0318_
*327 _0319_
*328 _0320_
*329 _0321_
*330 _0322_
*331 _0323_
*332 _0324_
*333 _0325_
*334 _0326_
*335 _0327_
*336 _0328_
*337 _0329_
*338 _0330_
*339 _0331_
*340 _0332_
*341 _0333_
*342 _0334_
*343 _0335_
*344 _0336_
*345 _0337_
*346 _0338_
*347 _0339_
*348 _0340_
*349 _0341_
*350 _0342_
*351 _0343_
*352 _0344_
*353 _0345_
*354 _0346_
*355 _0347_
*356 _0348_
*357 _0349_
*358 _0350_
*359 _0351_
*360 _0352_
*361 _0353_
*362 _0354_
*363 _0355_
*364 _0356_
*365 _0357_
*366 _0358_
*367 _0359_
*368 _0360_
*369 _0361_
*370 _0362_
*371 _0363_
*372 _0364_
*373 _0365_
*374 _0366_
*375 _0367_
*376 _0368_
*377 _0369_
*378 _0370_
*379 _0371_
*380 _0372_
*381 _0373_
*382 _0374_
*383 _0375_
*384 _0376_
*385 _0377_
*386 _0378_
*387 _0379_
*388 _0380_
*389 _0381_
*390 _0382_
*391 _0383_
*392 _0384_
*393 _0385_
*394 _0386_
*395 _0387_
*396 _0388_
*397 _0389_
*398 _0390_
*399 _0391_
*400 _0392_
*401 _0393_
*402 _0394_
*403 _0395_
*404 _0396_
*405 _0397_
*406 _0398_
*407 _0399_
*408 _0400_
*409 _0401_
*410 _0402_
*411 _0403_
*412 _0404_
*413 _0405_
*414 _0406_
*415 _0407_
*416 _0408_
*417 _0409_
*418 _0410_
*419 _0411_
*420 _0412_
*421 _0413_
*422 _0414_
*423 _0415_
*424 _0416_
*425 _0417_
*426 _0418_
*427 _0419_
*428 _0420_
*429 _0421_
*430 _0422_
*431 _0423_
*432 _0424_
*433 _0425_
*434 _0426_
*435 _0427_
*436 _0428_
*437 _0429_
*438 _0430_
*439 _0431_
*440 _0432_
*441 _0433_
*442 _0434_
*443 _0435_
*444 _0436_
*445 _0437_
*446 _0438_
*447 _0439_
*448 _0440_
*449 _0441_
*450 _0442_
*451 _0443_
*452 _0444_
*453 _0445_
*454 _0446_
*455 _0447_
*456 _0448_
*457 _0449_
*458 _0450_
*459 _0451_
*460 _0452_
*461 _0453_
*462 _0454_
*463 _0455_
*464 _0456_
*465 _0457_
*466 _0458_
*467 _0459_
*468 _0460_
*469 _0461_
*470 _0462_
*471 _0463_
*472 _0464_
*473 _0465_
*474 _0466_
*475 _0467_
*476 _0468_
*477 _0469_
*478 _0470_
*479 _0471_
*480 _0472_
*481 _0473_
*482 _0474_
*483 _0475_
*484 _0476_
*485 _0477_
*486 _0478_
*487 _0479_
*488 _0480_
*489 _0481_
*490 _0482_
*491 _0483_
*492 _0484_
*493 _0485_
*494 _0486_
*495 _0487_
*496 _0488_
*497 _0489_
*498 _0490_
*499 _0491_
*500 _0492_
*501 _0493_
*502 _0494_
*503 _0495_
*504 _0496_
*505 _0497_
*506 _0498_
*507 _0499_
*508 _0500_
*509 _0501_
*510 _0502_
*511 _0503_
*512 _0504_
*513 _0505_
*514 _0506_
*515 _0507_
*516 _0508_
*517 _0509_
*518 _0510_
*519 _0511_
*520 _0512_
*521 _0513_
*522 _0514_
*523 _0515_
*524 _0516_
*525 _0517_
*526 _0518_
*527 _0519_
*528 _0520_
*529 _0521_
*530 _0522_
*531 _0523_
*532 _0524_
*533 _0525_
*534 _0526_
*535 _0527_
*536 _0528_
*537 _0529_
*538 _0530_
*539 _0531_
*540 _0532_
*541 _0533_
*542 _0534_
*543 clk_fb_tap
*544 clknet_0_clk_ref
*545 clknet_0_u_fb_div\.g_stage\[1\]\.q
*546 clknet_0_u_fb_div\.g_stage\[1\]\.q_regs
*547 clknet_0_u_fb_div\.g_stage\[2\]\.q
*548 clknet_0_u_fb_div\.g_stage\[2\]\.q_regs
*549 clknet_0_u_fb_div\.stage_q0
*550 clknet_0_u_fb_div\.stage_q0_regs
*551 clknet_1_0__leaf_u_fb_div\.g_stage\[1\]\.q
*552 clknet_1_0__leaf_u_fb_div\.g_stage\[1\]\.q_regs
*553 clknet_1_0__leaf_u_fb_div\.g_stage\[2\]\.q
*554 clknet_1_0__leaf_u_fb_div\.g_stage\[2\]\.q_regs
*555 clknet_1_0__leaf_u_fb_div\.stage_q0
*556 clknet_1_0__leaf_u_fb_div\.stage_q0_regs
*557 clknet_1_1__leaf_u_fb_div\.g_stage\[1\]\.q_regs
*558 clknet_1_1__leaf_u_fb_div\.g_stage\[2\]\.q_regs
*559 clknet_1_1__leaf_u_fb_div\.stage_q0_regs
*560 clknet_3_0__leaf_clk_ref
*561 clknet_3_1__leaf_clk_ref
*562 clknet_3_2__leaf_clk_ref
*563 clknet_3_3__leaf_clk_ref
*564 clknet_3_4__leaf_clk_ref
*565 clknet_3_5__leaf_clk_ref
*566 clknet_3_6__leaf_clk_ref
*567 clknet_3_7__leaf_clk_ref
*568 duty\[0\]
*569 duty\[10\]
*570 duty\[11\]
*571 duty\[1\]
*572 duty\[2\]
*573 duty\[3\]
*574 duty\[4\]
*575 duty\[5\]
*576 duty\[6\]
*577 duty\[7\]
*578 duty\[8\]
*579 duty\[9\]
*580 fb_sync\[0\]
*581 fb_sync\[1\]
*582 fb_sync\[2\]
*583 last_dir\[0\]
*584 last_dir\[1\]
*585 net1
*586 net10
*587 net100
*588 net101
*589 net102
*590 net103
*591 net104
*592 net105
*593 net106
*594 net107
*595 net108
*596 net109
*597 net11
*598 net110
*599 net111
*600 net112
*601 net113
*602 net114
*603 net115
*604 net116
*605 net117
*606 net118
*607 net119
*608 net12
*609 net120
*610 net121
*611 net122
*612 net123
*613 net124
*614 net125
*615 net126
*616 net127
*617 net128
*618 net129
*619 net13
*620 net130
*621 net131
*622 net132
*623 net133
*624 net134
*625 net135
*626 net136
*627 net137
*628 net138
*629 net139
*630 net14
*631 net140
*632 net141
*633 net142
*634 net143
*635 net15
*636 net16
*637 net17
*638 net18
*639 net19
*640 net2
*641 net20
*642 net21
*643 net22
*644 net23
*645 net24
*646 net25
*647 net26
*648 net27
*649 net28
*650 net29
*651 net3
*652 net30
*653 net31
*654 net32
*655 net33
*656 net34
*657 net35
*658 net36
*659 net37
*660 net38
*661 net39
*662 net4
*663 net40
*664 net41
*665 net42
*666 net43
*667 net44
*668 net45
*669 net46
*670 net47
*671 net48
*672 net49
*673 net5
*674 net50
*675 net51
*676 net52
*677 net53
*678 net54
*679 net55
*680 net56
*681 net57
*682 net58
*683 net59
*684 net6
*685 net60
*686 net61
*687 net62
*688 net63
*689 net64
*690 net65
*691 net66
*692 net67
*693 net68
*694 net69
*695 net7
*696 net70
*697 net71
*698 net72
*699 net73
*700 net74
*701 net75
*702 net76
*703 net77
*704 net78
*705 net79
*706 net8
*707 net80
*708 net81
*709 net82
*710 net83
*711 net84
*712 net85
*713 net86
*714 net87
*715 net88
*716 net89
*717 net9
*718 net90
*719 net91
*720 net92
*721 net93
*722 net94
*723 net95
*724 net96
*725 net97
*726 net98
*727 net99
*728 per_cnt\[0\]
*729 per_cnt\[10\]
*730 per_cnt\[11\]
*731 per_cnt\[12\]
*732 per_cnt\[1\]
*733 per_cnt\[2\]
*734 per_cnt\[3\]
*735 per_cnt\[4\]
*736 per_cnt\[5\]
*737 per_cnt\[6\]
*738 per_cnt\[7\]
*739 per_cnt\[8\]
*740 per_cnt\[9\]
*741 sd_acc\[0\]
*742 sd_acc\[10\]
*743 sd_acc\[11\]
*744 sd_acc\[12\]
*745 sd_acc\[1\]
*746 sd_acc\[2\]
*747 sd_acc\[3\]
*748 sd_acc\[4\]
*749 sd_acc\[5\]
*750 sd_acc\[6\]
*751 sd_acc\[7\]
*752 sd_acc\[8\]
*753 sd_acc\[9\]
*754 settling
*755 streak\[1\]
*756 streak\[2\]
*757 streak\[3\]
*758 streak\[4\]
*759 streak\[5\]
*760 tap_sel\[0\]
*761 tap_sel\[3\]
*762 u_fb_div\.g_stage\[10\]\.q
*763 u_fb_div\.g_stage\[11\]\.q
*764 u_fb_div\.g_stage\[12\]\.q
*765 u_fb_div\.g_stage\[1\]\.q
*766 u_fb_div\.g_stage\[1\]\.q_regs
*767 u_fb_div\.g_stage\[2\]\.q
*768 u_fb_div\.g_stage\[2\]\.q_regs
*769 u_fb_div\.g_stage\[3\]\.q
*770 u_fb_div\.g_stage\[4\]\.q
*771 u_fb_div\.g_stage\[5\]\.q
*772 u_fb_div\.g_stage\[6\]\.q
*773 u_fb_div\.g_stage\[7\]\.q
*774 u_fb_div\.g_stage\[8\]\.q
*775 u_fb_div\.g_stage\[9\]\.q
*776 u_fb_div\.stage_q0
*777 u_fb_div\.stage_q0_regs
*778 FILLER_0_0
*779 FILLER_0_123
*780 FILLER_0_130
*781 FILLER_0_132
*782 FILLER_0_19
*783 FILLER_0_21
*784 FILLER_0_228
*785 FILLER_0_230
*786 FILLER_0_234
*787 FILLER_0_236
*788 FILLER_0_26
*789 FILLER_0_28
*790 FILLER_0_282
*791 FILLER_0_330
*792 FILLER_0_334
*793 FILLER_0_338
*794 FILLER_0_340
*795 FILLER_0_368
*796 FILLER_0_375
*797 FILLER_0_64
*798 FILLER_0_7
*799 FILLER_0_9
*800 FILLER_10_0
*801 FILLER_10_108
*802 FILLER_10_123
*803 FILLER_10_130
*804 FILLER_10_132
*805 FILLER_10_145
*806 FILLER_10_154
*807 FILLER_10_19
*808 FILLER_10_21
*809 FILLER_10_228
*810 FILLER_10_235
*811 FILLER_10_26
*812 FILLER_10_28
*813 FILLER_10_291
*814 FILLER_10_293
*815 FILLER_10_307
*816 FILLER_10_321
*817 FILLER_10_329
*818 FILLER_10_336
*819 FILLER_10_340
*820 FILLER_10_349
*821 FILLER_10_351
*822 FILLER_10_4
*823 FILLER_10_69
*824 FILLER_11_0
*825 FILLER_11_103
*826 FILLER_11_120
*827 FILLER_11_130
*828 FILLER_11_132
*829 FILLER_11_174
*830 FILLER_11_176
*831 FILLER_11_19
*832 FILLER_11_202
*833 FILLER_11_21
*834 FILLER_11_213
*835 FILLER_11_228
*836 FILLER_11_235
*837 FILLER_11_26
*838 FILLER_11_28
*839 FILLER_11_288
*840 FILLER_11_290
*841 FILLER_11_309
*842 FILLER_11_311
*843 FILLER_11_321
*844 FILLER_11_323
*845 FILLER_11_329
*846 FILLER_11_336
*847 FILLER_11_340
*848 FILLER_11_349
*849 FILLER_11_351
*850 FILLER_11_362
*851 FILLER_11_377
*852 FILLER_11_60
*853 FILLER_11_69
*854 FILLER_11_7
*855 FILLER_11_84
*856 FILLER_11_9
*857 FILLER_11_91
*858 FILLER_12_0
*859 FILLER_12_101
*860 FILLER_12_105
*861 FILLER_12_121
*862 FILLER_12_128
*863 FILLER_12_132
*864 FILLER_12_146
*865 FILLER_12_19
*866 FILLER_12_190
*867 FILLER_12_192
*868 FILLER_12_21
*869 FILLER_12_228
*870 FILLER_12_235
*871 FILLER_12_259
*872 FILLER_12_26
*873 FILLER_12_28
*874 FILLER_12_293
*875 FILLER_12_308
*876 FILLER_12_330
*877 FILLER_12_337
*878 FILLER_12_349
*879 FILLER_12_351
*880 FILLER_12_56
*881 FILLER_12_7
*882 FILLER_12_71
*883 FILLER_13_0
*884 FILLER_13_101
*885 FILLER_13_118
*886 FILLER_13_123
*887 FILLER_13_130
*888 FILLER_13_145
*889 FILLER_13_165
*890 FILLER_13_175
*891 FILLER_13_19
*892 FILLER_13_193
*893 FILLER_13_195
*894 FILLER_13_228
*895 FILLER_13_235
*896 FILLER_13_258
*897 FILLER_13_26
*898 FILLER_13_28
*899 FILLER_13_283
*900 FILLER_13_285
*901 FILLER_13_317
*902 FILLER_13_332
*903 FILLER_13_339
*904 FILLER_13_346
*905 FILLER_13_358
*906 FILLER_13_360
*907 FILLER_13_38
*908 FILLER_13_40
*909 FILLER_13_7
*910 FILLER_13_78
*911 FILLER_13_97
*912 FILLER_14_0
*913 FILLER_14_123
*914 FILLER_14_130
*915 FILLER_14_147
*916 FILLER_14_158
*917 FILLER_14_169
*918 FILLER_14_178
*919 FILLER_14_19
*920 FILLER_14_227
*921 FILLER_14_234
*922 FILLER_14_236
*923 FILLER_14_256
*924 FILLER_14_26
*925 FILLER_14_263
*926 FILLER_14_265
*927 FILLER_14_28
*928 FILLER_14_281
*929 FILLER_14_283
*930 FILLER_14_316
*931 FILLER_14_330
*932 FILLER_14_337
*933 FILLER_14_351
*934 FILLER_14_65
*935 FILLER_15_0
*936 FILLER_15_114
*937 FILLER_15_123
*938 FILLER_15_130
*939 FILLER_15_134
*940 FILLER_15_145
*941 FILLER_15_155
*942 FILLER_15_161
*943 FILLER_15_183
*944 FILLER_15_19
*945 FILLER_15_228
*946 FILLER_15_235
*947 FILLER_15_239
*948 FILLER_15_255
*949 FILLER_15_26
*950 FILLER_15_295
*951 FILLER_15_317
*952 FILLER_15_332
*953 FILLER_15_339
*954 FILLER_15_346
*955 FILLER_15_7
*956 FILLER_15_91
*957 FILLER_16_0
*958 FILLER_16_123
*959 FILLER_16_130
*960 FILLER_16_132
*961 FILLER_16_14
*962 FILLER_16_149
*963 FILLER_16_170
*964 FILLER_16_19
*965 FILLER_16_21
*966 FILLER_16_228
*967 FILLER_16_235
*968 FILLER_16_26
*969 FILLER_16_28
*970 FILLER_16_324
*971 FILLER_16_331
*972 FILLER_16_338
*973 FILLER_16_340
*974 FILLER_16_378
*975 FILLER_16_61
*976 FILLER_16_7
*977 FILLER_17_0
*978 FILLER_17_123
*979 FILLER_17_130
*980 FILLER_17_132
*981 FILLER_17_166
*982 FILLER_17_19
*983 FILLER_17_21
*984 FILLER_17_228
*985 FILLER_17_235
*986 FILLER_17_26
*987 FILLER_17_287
*988 FILLER_17_312
*989 FILLER_17_322
*990 FILLER_17_332
*991 FILLER_17_339
*992 FILLER_17_376
*993 FILLER_17_378
*994 FILLER_17_7
*995 FILLER_17_95
*996 FILLER_18_0
*997 FILLER_18_120
*998 FILLER_18_127
*999 FILLER_18_134
*1000 FILLER_18_19
*1001 FILLER_18_202
*1002 FILLER_18_220
*1003 FILLER_18_222
*1004 FILLER_18_228
*1005 FILLER_18_235
*1006 FILLER_18_26
*1007 FILLER_18_264
*1008 FILLER_18_28
*1009 FILLER_18_330
*1010 FILLER_18_337
*1011 FILLER_18_372
*1012 FILLER_18_374
*1013 FILLER_18_42
*1014 FILLER_18_44
*1015 FILLER_18_7
*1016 FILLER_18_81
*1017 FILLER_18_83
*1018 FILLER_1_0
*1019 FILLER_1_111
*1020 FILLER_1_122
*1021 FILLER_1_129
*1022 FILLER_1_168
*1023 FILLER_1_19
*1024 FILLER_1_21
*1025 FILLER_1_228
*1026 FILLER_1_230
*1027 FILLER_1_234
*1028 FILLER_1_236
*1029 FILLER_1_26
*1030 FILLER_1_28
*1031 FILLER_1_331
*1032 FILLER_1_338
*1033 FILLER_1_340
*1034 FILLER_1_345
*1035 FILLER_1_350
*1036 FILLER_1_56
*1037 FILLER_1_7
*1038 FILLER_2_0
*1039 FILLER_2_123
*1040 FILLER_2_130
*1041 FILLER_2_134
*1042 FILLER_2_163
*1043 FILLER_2_188
*1044 FILLER_2_19
*1045 FILLER_2_21
*1046 FILLER_2_228
*1047 FILLER_2_230
*1048 FILLER_2_234
*1049 FILLER_2_236
*1050 FILLER_2_26
*1051 FILLER_2_28
*1052 FILLER_2_331
*1053 FILLER_2_338
*1054 FILLER_2_340
*1055 FILLER_2_376
*1056 FILLER_2_378
*1057 FILLER_2_43
*1058 FILLER_2_54
*1059 FILLER_2_7
*1060 FILLER_2_86
*1061 FILLER_3_0
*1062 FILLER_3_123
*1063 FILLER_3_130
*1064 FILLER_3_132
*1065 FILLER_3_156
*1066 FILLER_3_174
*1067 FILLER_3_19
*1068 FILLER_3_21
*1069 FILLER_3_227
*1070 FILLER_3_234
*1071 FILLER_3_236
*1072 FILLER_3_26
*1073 FILLER_3_28
*1074 FILLER_3_317
*1075 FILLER_3_319
*1076 FILLER_3_330
*1077 FILLER_3_334
*1078 FILLER_3_338
*1079 FILLER_3_340
*1080 FILLER_3_368
*1081 FILLER_3_7
*1082 FILLER_3_83
*1083 FILLER_3_9
*1084 FILLER_4_0
*1085 FILLER_4_123
*1086 FILLER_4_130
*1087 FILLER_4_132
*1088 FILLER_4_146
*1089 FILLER_4_161
*1090 FILLER_4_180
*1091 FILLER_4_19
*1092 FILLER_4_21
*1093 FILLER_4_228
*1094 FILLER_4_230
*1095 FILLER_4_234
*1096 FILLER_4_236
*1097 FILLER_4_26
*1098 FILLER_4_303
*1099 FILLER_4_332
*1100 FILLER_4_339
*1101 FILLER_4_350
*1102 FILLER_4_39
*1103 FILLER_4_4
*1104 FILLER_4_48
*1105 FILLER_4_50
*1106 FILLER_4_71
*1107 FILLER_4_95
*1108 FILLER_5_0
*1109 FILLER_5_123
*1110 FILLER_5_130
*1111 FILLER_5_132
*1112 FILLER_5_138
*1113 FILLER_5_175
*1114 FILLER_5_19
*1115 FILLER_5_21
*1116 FILLER_5_228
*1117 FILLER_5_230
*1118 FILLER_5_234
*1119 FILLER_5_236
*1120 FILLER_5_250
*1121 FILLER_5_26
*1122 FILLER_5_279
*1123 FILLER_5_28
*1124 FILLER_5_332
*1125 FILLER_5_334
*1126 FILLER_5_338
*1127 FILLER_5_340
*1128 FILLER_5_351
*1129 FILLER_5_353
*1130 FILLER_5_377
*1131 FILLER_5_56
*1132 FILLER_5_7
*1133 FILLER_5_77
*1134 FILLER_5_90
*1135 FILLER_6_0
*1136 FILLER_6_123
*1137 FILLER_6_130
*1138 FILLER_6_132
*1139 FILLER_6_143
*1140 FILLER_6_19
*1141 FILLER_6_21
*1142 FILLER_6_228
*1143 FILLER_6_230
*1144 FILLER_6_234
*1145 FILLER_6_236
*1146 FILLER_6_26
*1147 FILLER_6_30
*1148 FILLER_6_332
*1149 FILLER_6_334
*1150 FILLER_6_338
*1151 FILLER_6_340
*1152 FILLER_6_346
*1153 FILLER_6_67
*1154 FILLER_6_7
*1155 FILLER_6_97
*1156 FILLER_7_0
*1157 FILLER_7_102
*1158 FILLER_7_123
*1159 FILLER_7_130
*1160 FILLER_7_132
*1161 FILLER_7_19
*1162 FILLER_7_195
*1163 FILLER_7_21
*1164 FILLER_7_226
*1165 FILLER_7_233
*1166 FILLER_7_26
*1167 FILLER_7_263
*1168 FILLER_7_28
*1169 FILLER_7_308
*1170 FILLER_7_316
*1171 FILLER_7_330
*1172 FILLER_7_334
*1173 FILLER_7_338
*1174 FILLER_7_340
*1175 FILLER_7_7
*1176 FILLER_7_71
*1177 FILLER_7_73
*1178 FILLER_8_0
*1179 FILLER_8_103
*1180 FILLER_8_123
*1181 FILLER_8_130
*1182 FILLER_8_164
*1183 FILLER_8_19
*1184 FILLER_8_21
*1185 FILLER_8_228
*1186 FILLER_8_235
*1187 FILLER_8_26
*1188 FILLER_8_263
*1189 FILLER_8_272
*1190 FILLER_8_296
*1191 FILLER_8_298
*1192 FILLER_8_30
*1193 FILLER_8_319
*1194 FILLER_8_321
*1195 FILLER_8_332
*1196 FILLER_8_334
*1197 FILLER_8_338
*1198 FILLER_8_340
*1199 FILLER_8_350
*1200 FILLER_8_369
*1201 FILLER_8_68
*1202 FILLER_8_7
*1203 FILLER_8_77
*1204 FILLER_9_0
*1205 FILLER_9_103
*1206 FILLER_9_113
*1207 FILLER_9_123
*1208 FILLER_9_130
*1209 FILLER_9_132
*1210 FILLER_9_138
*1211 FILLER_9_154
*1212 FILLER_9_19
*1213 FILLER_9_197
*1214 FILLER_9_21
*1215 FILLER_9_217
*1216 FILLER_9_228
*1217 FILLER_9_235
*1218 FILLER_9_26
*1219 FILLER_9_276
*1220 FILLER_9_278
*1221 FILLER_9_28
*1222 FILLER_9_295
*1223 FILLER_9_319
*1224 FILLER_9_329
*1225 FILLER_9_336
*1226 FILLER_9_340
*1227 FILLER_9_355
*1228 FILLER_9_45
*1229 FILLER_9_70
*1230 FILLER_9_82
*1231 _0535_
*1232 _0536_
*1233 _0537_
*1234 _0538_
*1235 _0539_
*1236 _0540_
*1237 _0541_
*1238 _0542_
*1239 _0543_
*1240 _0544_
*1241 _0545_
*1242 _0546_
*1243 _0547_
*1244 _0548_
*1245 _0549__58
*1246 _0550__59
*1247 _0551__60
*1248 _0552_
*1249 _0553_
*1250 _0554_
*1251 _0555_
*1252 _0556_
*1253 _0557_
*1254 _0558_
*1255 _0559_
*1256 _0560_
*1257 _0561_
*1258 _0562_
*1259 _0563_
*1260 _0564_
*1261 _0565_
*1262 _0566_
*1263 _0567_
*1264 _0568_
*1265 _0569_
*1266 _0570_
*1267 _0571_
*1268 _0572_
*1269 _0573_
*1270 _0574_
*1271 _0575_
*1272 _0576_
*1273 _0577_
*1274 _0578_
*1275 _0579_
*1276 _0580_
*1277 _0581_
*1278 _0582_
*1279 _0583_
*1280 _0584_
*1281 _0585_
*1282 _0586_
*1283 _0587_
*1284 _0588_
*1285 _0589_
*1286 _0590_
*1287 _0591_
*1288 _0592_
*1289 _0593_
*1290 _0594_
*1291 _0595_
*1292 _0596_
*1293 _0597_
*1294 _0598_
*1295 _0599_
*1296 _0600_
*1297 _0601_
*1298 _0602_
*1299 _0603_
*1300 _0604_
*1301 _0605_
*1302 _0606_
*1303 _0607_
*1304 _0608_
*1305 _0609_
*1306 _0610_
*1307 _0611_
*1308 _0612_
*1309 _0613_
*1310 _0614_
*1311 _0615_
*1312 _0616_
*1313 _0617_
*1314 _0618_
*1315 _0619_
*1316 _0620_
*1317 _0621_
*1318 _0622_
*1319 _0623_
*1320 _0624_
*1321 _0625_
*1322 _0626_
*1323 _0627_
*1324 _0628_
*1325 _0629_
*1326 _0630_
*1327 _0631_
*1328 _0632_
*1329 _0633_
*1330 _0634_
*1331 _0635_
*1332 _0636_
*1333 _0637_
*1334 _0638_
*1335 _0639_
*1336 _0640_
*1337 _0641_
*1338 _0642_
*1339 _0643_
*1340 _0644_
*1341 _0645_
*1342 _0646_
*1343 _0647_
*1344 _0648_
*1345 _0649_
*1346 _0650_
*1347 _0651_
*1348 _0652_
*1349 _0653_
*1350 _0654_
*1351 _0655_
*1352 _0656_
*1353 _0657_
*1354 _0658_
*1355 _0659_
*1356 _0660_
*1357 _0661_
*1358 _0662_
*1359 _0663_
*1360 _0664_
*1361 _0665_
*1362 _0666_
*1363 _0667_
*1364 _0668_
*1365 _0669_
*1366 _0670_
*1367 _0671_
*1368 _0672_
*1369 _0673_
*1370 _0674_
*1371 _0675_
*1372 _0676_
*1373 _0677_
*1374 _0678_
*1375 _0679_
*1376 _0680_
*1377 _0681_
*1378 _0682_
*1379 _0683_
*1380 _0684_
*1381 _0685_
*1382 _0686_
*1383 _0687_
*1384 _0688_
*1385 _0689_
*1386 _0690_
*1387 _0691_
*1388 _0692_
*1389 _0693_
*1390 _0694_
*1391 _0695_
*1392 _0696_
*1393 _0697_
*1394 _0698_
*1395 _0699_
*1396 _0700_
*1397 _0701_
*1398 _0702_
*1399 _0703_
*1400 _0704_
*1401 _0705_
*1402 _0706_
*1403 _0707_
*1404 _0708_
*1405 _0709_
*1406 _0710_
*1407 _0711_
*1408 _0712_
*1409 _0713_
*1410 _0714_
*1411 _0715_
*1412 _0716_
*1413 _0717_
*1414 _0718_
*1415 _0719_
*1416 _0720_
*1417 _0721_
*1418 _0722_
*1419 _0723_
*1420 _0724_
*1421 _0725_
*1422 _0726_
*1423 _0727_
*1424 _0728_
*1425 _0729_
*1426 _0730_
*1427 _0731_
*1428 _0732_
*1429 _0733_
*1430 _0734_
*1431 _0735_
*1432 _0736_
*1433 _0737_
*1434 _0738_
*1435 _0739_
*1436 _0740_
*1437 _0741_
*1438 _0742_
*1439 _0743_
*1440 _0744_
*1441 _0745_
*1442 _0746_
*1443 _0747_
*1444 _0748_
*1445 _0749_
*1446 _0750_
*1447 _0751_
*1448 _0752_
*1449 _0753_
*1450 _0754_
*1451 _0755_
*1452 _0756_
*1453 _0757_
*1454 _0758_
*1455 _0759_
*1456 _0760_
*1457 _0761_
*1458 _0762_
*1459 _0763_
*1460 _0764_
*1461 _0765_
*1462 _0766_
*1463 _0767_
*1464 _0768_
*1465 _0769_
*1466 _0770_
*1467 _0771_
*1468 _0772_
*1469 _0773_
*1470 _0774_
*1471 _0775_
*1472 _0776_
*1473 _0777_
*1474 _0778_
*1475 _0779_
*1476 _0780_
*1477 _0781_
*1478 _0782_
*1479 _0783_
*1480 _0784_
*1481 _0785_
*1482 _0786_
*1483 _0787_
*1484 _0788_
*1485 _0789_
*1486 _0790_
*1487 _0791_
*1488 _0792_
*1489 _0793_
*1490 _0794_
*1491 _0795_
*1492 _0796_
*1493 _0797_
*1494 _0798_
*1495 _0799_
*1496 _0800_
*1497 _0801_
*1498 _0802_
*1499 _0803_
*1500 _0804_
*1501 _0805_
*1502 _0806_
*1503 _0807_
*1504 _0808_
*1505 _0809_
*1506 _0810_
*1507 _0811_
*1508 _0812_
*1509 _0813_
*1510 _0814_
*1511 _0815_
*1512 _0816_
*1513 _0817_
*1514 _0818_
*1515 _0819_
*1516 _0820_
*1517 _0821_
*1518 _0822_
*1519 _0823_
*1520 _0824_
*1521 _0825_
*1522 _0826_
*1523 _0827_
*1524 _0828_
*1525 _0829_
*1526 _0830_
*1527 _0831_
*1528 _0832_
*1529 _0833_
*1530 _0834_
*1531 _0835_
*1532 _0836_
*1533 _0837_
*1534 _0838_
*1535 _0839_
*1536 _0840_
*1537 _0841_
*1538 _0842_
*1539 _0843_
*1540 _0844_
*1541 _0845_
*1542 _0846_
*1543 _0847_
*1544 _0848_
*1545 _0849_
*1546 _0850_
*1547 _0851_
*1548 _0852_
*1549 _0853_
*1550 _0854_
*1551 _0855_
*1552 _0856_
*1553 _0857_
*1554 _0858_
*1555 _0859_
*1556 _0860_
*1557 _0861_
*1558 _0862_
*1559 _0863_
*1560 _0864_
*1561 _0865_
*1562 _0866_
*1563 _0867_
*1564 _0868_
*1565 _0869_
*1566 _0870_
*1567 _0871_
*1568 _0872_
*1569 _0873_
*1570 _0874_
*1571 _0875_
*1572 _0876_
*1573 _0877_
*1574 _0878_
*1575 _0879_
*1576 _0880_
*1577 _0881_
*1578 _0882_
*1579 _0883_
*1580 _0884_
*1581 _0885_
*1582 _0886_
*1583 _0887_
*1584 _0888_
*1585 _0889_
*1586 _0890_
*1587 _0891_
*1588 _0892_
*1589 _0893_
*1590 _0894_
*1591 _0895_
*1592 _0896_
*1593 _0897_
*1594 _0898_
*1595 _0899_
*1596 _0900_
*1597 _0901_
*1598 _0902_
*1599 _0903_
*1600 _0904_
*1601 _0905_
*1602 _0906_
*1603 _0907_
*1604 _0908_
*1605 _0909_
*1606 _0910_
*1607 _0911_
*1608 _0912_
*1609 _0913_
*1610 _0914_
*1611 _0915_
*1612 _0916_
*1613 _0917_
*1614 _0918_
*1615 _0919_
*1616 _0920_
*1617 _0921_
*1618 _0922_
*1619 _0923_
*1620 _0924_
*1621 _0925_
*1622 _0926_
*1623 _0927_
*1624 _0928_
*1625 _0929_
*1626 _0930_
*1627 _0931_
*1628 _0932_
*1629 _0933_
*1630 _0934_
*1631 _0935_
*1632 _0936_
*1633 _0937_
*1634 _0938_
*1635 _0939_
*1636 _0940_
*1637 _0941_
*1638 _0942_
*1639 _0943_
*1640 _0944_
*1641 _0945_
*1642 _0946_
*1643 _0947_
*1644 _0948_
*1645 _0949_
*1646 _0950_
*1647 _0951_
*1648 _0952_
*1649 _0953_
*1650 _0954_
*1651 _0955_
*1652 _0956_
*1653 _0957_
*1654 _0958_
*1655 _0959_
*1656 _0960_
*1657 _0961_
*1658 _0962_
*1659 _0963_
*1660 _0964_
*1661 _0965_
*1662 _0966_
*1663 _0967_
*1664 _0968_
*1665 _0969_
*1666 _0970_
*1667 _0971_
*1668 _0972_
*1669 _0973_
*1670 _0974_
*1671 _0975_
*1672 _0976_
*1673 _0977_
*1674 _0978_
*1675 _0979_
*1676 _0980_
*1677 _0981_
*1678 _0982_
*1679 _0983_
*1680 _0984_
*1681 _0985_
*1682 _0986_
*1683 _0987_
*1684 _0988_
*1685 _0989_
*1686 _0990_
*1687 _0991_
*1688 _0992_
*1689 _0993_
*1690 _0994_
*1691 _0995_
*1692 _0996_
*1693 _0997_
*1694 _0998_
*1695 _0999_
*1696 _1000_
*1697 _1001_
*1698 _1002_
*1699 _1003_
*1700 _1004_
*1701 _1005_
*1702 _1006_
*1703 _1007_
*1704 _1008_
*1705 _1009_
*1706 _1010_
*1707 _1011_
*1708 _1012_
*1709 _1013_
*1710 _1014_
*1711 _1015_
*1712 _1016_
*1713 _1017_
*1714 _1018_
*1715 _1019_
*1716 _1020_
*1717 _1021_
*1718 _1022_
*1719 _1023_
*1720 _1024_
*1721 _1025_
*1722 _1026_
*1723 _1027_
*1724 _1028_
*1725 _1029_
*1726 _1030_
*1727 _1031_
*1728 _1032_
*1729 _1033_
*1730 _1034_
*1731 _1035_
*1732 _1036_
*1733 _1037_
*1734 _1038_
*1735 _1039_
*1736 _1040_
*1737 _1041_
*1738 _1042_
*1739 _1043_
*1740 _1044_
*1741 _1045_
*1742 _1046_
*1743 _1047_
*1744 _1048_
*1745 _1049_
*1746 _1050_
*1747 _1051_
*1748 _1052_
*1749 _1053_
*1750 _1054_
*1751 _1055_
*1752 _1056_
*1753 _1057_
*1754 _1058_
*1755 _1059_
*1756 _1060_
*1757 _1061_
*1758 _1062_
*1759 _1063_
*1760 _1064_
*1761 _1065_
*1762 _1066_
*1763 _1067_
*1764 _1068_
*1765 _1069_
*1766 _1070_
*1767 _1071_
*1768 _1072_
*1769 _1073_
*1770 _1074_
*1771 _1075_
*1772 _1076_
*1773 _1077_
*1774 _1078_
*1775 _1079_
*1776 _1080_
*1777 _1081_
*1778 _1082_
*1779 _1083_
*1780 _1084_
*1781 _1085_
*1782 _1086_
*1783 _1087_
*1784 _1088_
*1785 _1089_
*1786 _1090_
*1787 _1091_
*1788 _1092_
*1789 _1093_
*1790 _1094_
*1791 _1095_
*1792 _1096_
*1793 _1097_
*1794 _1098_
*1795 _1099_
*1796 _1100_
*1797 _1101_
*1798 _1102_
*1799 _1103_
*1800 _1104_
*1801 _1105_
*1802 _1106_
*1803 _1107_
*1804 _1108_
*1805 _1109_
*1806 _1110_
*1807 _1111_
*1808 _1112_
*1809 _1113_
*1810 _1114_
*1811 _1115_
*1812 _1116_
*1813 _1117_
*1814 _1118_
*1815 _1119_
*1816 _1120_
*1817 _1121_
*1818 _1122_
*1819 _1123_
*1820 _1124_
*1821 _1125_
*1822 _1126_
*1823 _1127_
*1824 _1128_
*1825 _1129_
*1826 _1130_
*1827 _1131_
*1828 _1132_
*1829 _1133_
*1830 _1134_
*1831 _1135_
*1832 _1136_
*1833 _1137_
*1834 clkbuf_0_clk_ref
*1835 clkbuf_0_u_fb_div\.g_stage\[1\]\.q
*1836 clkbuf_0_u_fb_div\.g_stage\[1\]\.q_regs
*1837 clkbuf_0_u_fb_div\.g_stage\[2\]\.q
*1838 clkbuf_0_u_fb_div\.g_stage\[2\]\.q_regs
*1839 clkbuf_0_u_fb_div\.stage_q0
*1840 clkbuf_0_u_fb_div\.stage_q0_regs
*1841 clkbuf_1_0__f_u_fb_div\.g_stage\[1\]\.q
*1842 clkbuf_1_0__f_u_fb_div\.g_stage\[1\]\.q_regs
*1843 clkbuf_1_0__f_u_fb_div\.g_stage\[2\]\.q
*1844 clkbuf_1_0__f_u_fb_div\.g_stage\[2\]\.q_regs
*1845 clkbuf_1_0__f_u_fb_div\.stage_q0
*1846 clkbuf_1_0__f_u_fb_div\.stage_q0_regs
*1847 clkbuf_1_1__f_u_fb_div\.g_stage\[1\]\.q_regs
*1848 clkbuf_1_1__f_u_fb_div\.g_stage\[2\]\.q_regs
*1849 clkbuf_1_1__f_u_fb_div\.stage_q0_regs
*1850 clkbuf_3_0__f_clk_ref
*1851 clkbuf_3_1__f_clk_ref
*1852 clkbuf_3_2__f_clk_ref
*1853 clkbuf_3_3__f_clk_ref
*1854 clkbuf_3_4__f_clk_ref
*1855 clkbuf_3_5__f_clk_ref
*1856 clkbuf_3_6__f_clk_ref
*1857 clkbuf_3_7__f_clk_ref
*1858 clkbuf_regs_0_fb_stage0
*1859 clkbuf_regs_1_fb_stage1
*1860 clkbuf_regs_2_fb_stage2
*1861 clkload0
*1862 clkload1
*1863 clkload2
*1864 fanout10
*1865 fanout11
*1866 fanout12
*1867 fanout13
*1868 fanout14
*1869 fanout15
*1870 fanout16
*1871 fanout17
*1872 fanout18
*1873 fanout19
*1874 fanout20
*1875 fanout21
*1876 fanout22
*1877 fanout23
*1878 fanout24
*1879 fanout25
*1880 fanout26
*1881 fanout27
*1882 fanout28
*1883 fanout29
*1884 fanout30
*1885 fanout31
*1886 fanout32
*1887 fanout33
*1888 fanout34
*1889 fanout35
*1890 fanout36
*1891 fanout37
*1892 fanout38
*1893 fanout39
*1894 fanout40
*1895 fanout41
*1896 fanout42
*1897 fanout43
*1898 fanout44
*1899 fanout45
*1900 fanout46
*1901 fanout47
*1902 fanout48
*1903 fanout49
*1904 fanout5
*1905 fanout50
*1906 fanout51
*1907 fanout52
*1908 fanout53
*1909 fanout54
*1910 fanout55
*1911 fanout56
*1912 fanout57
*1913 fanout6
*1914 fanout7
*1915 fanout8
*1916 fanout9
*1917 hold100
*1918 hold101
*1919 hold102
*1920 hold103
*1921 hold104
*1922 hold105
*1923 hold106
*1924 hold107
*1925 hold108
*1926 hold109
*1927 hold110
*1928 hold111
*1929 hold112
*1930 hold113
*1931 hold114
*1932 hold115
*1933 hold116
*1934 hold117
*1935 hold118
*1936 hold119
*1937 hold120
*1938 hold121
*1939 hold122
*1940 hold123
*1941 hold124
*1942 hold125
*1943 hold126
*1944 hold127
*1945 hold128
*1946 hold129
*1947 hold130
*1948 hold131
*1949 hold132
*1950 hold133
*1951 hold134
*1952 hold135
*1953 hold136
*1954 hold137
*1955 hold138
*1956 hold139
*1957 hold140
*1958 hold141
*1959 hold142
*1960 hold143
*1961 hold61
*1962 hold62
*1963 hold63
*1964 hold64
*1965 hold65
*1966 hold66
*1967 hold67
*1968 hold68
*1969 hold69
*1970 hold70
*1971 hold71
*1972 hold72
*1973 hold73
*1974 hold74
*1975 hold75
*1976 hold76
*1977 hold77
*1978 hold78
*1979 hold79
*1980 hold80
*1981 hold81
*1982 hold82
*1983 hold83
*1984 hold84
*1985 hold85
*1986 hold86
*1987 hold87
*1988 hold88
*1989 hold89
*1990 hold90
*1991 hold91
*1992 hold92
*1993 hold93
*1994 hold94
*1995 hold95
*1996 hold96
*1997 hold97
*1998 hold98
*1999 hold99
*2000 input1
*2001 output2
*2002 output3
*2003 output4

*PORTS
clk_fb I
clk_ref I
dac_out O
rst_ni I
vctrl_b_in I
vctrl_b_out O
vctrl_in I
vctrl_out O

*D_NET *3 0.0124464
*CONN
*P clk_fb I
*I *1794:CLK I *D sg13cmos5l_dfrbpq_1
*CAP
1 clk_fb 0.000787161
2 *1794:CLK 0
3 *3:23 0.0010446
4 *3:15 0.00200314
5 *3:9 0.0017457
6 *3:9 *155:16 0
7 *3:9 *308:37 0.000501045
8 *3:9 *566:35 0
9 *3:9 *637:41 0
10 *3:9 *682:14 0.00152018
11 *3:9 *702:16 0
12 *3:15 *1517:A 0
13 *3:15 *1831:RESET_B 0
14 *3:15 *1849:A 0
15 *3:15 *1925:A 0.000402137
16 *3:15 *1968:A 0
17 *3:15 *550:37 0
18 *3:15 *682:14 0.00140228
19 *3:23 *1477:B1 0.000394566
20 *3:23 *1495:B1 0.000209053
21 *3:23 *1504:C1 0
22 *3:23 *1807:CLK 0
23 *3:23 *53:16 0
24 *3:23 *258:27 0
25 *3:23 *287:21 0.000532309
26 *3:23 *287:29 0.00119096
27 *3:23 *300:32 0.000713261
*RES
1 clk_fb *3:9 31.0004 
2 *3:9 *3:15 49.6202 
3 *3:15 *3:23 33.536 
4 *3:23 *1794:CLK 20 
*END

*D_NET *4 0.00938604
*CONN
*P clk_ref I
*I *1834:A I *D sg13cmos5l_buf_8
*CAP
1 clk_ref 0.00228573
2 *1834:A 8.88178e-05
3 *4:38 0.00240729
4 *4:10 0.0046042
5 *1834:A *1744:A1 0
6 *1834:A *1744:A2 0
7 *1834:A *299:16 0
8 *4:10 *6:9 0
9 *4:10 *681:10 0
10 *4:10 *681:18 0
11 *4:38 *1261:A 0
12 *4:38 *1261:B 0
13 *4:38 *1493:A 0
14 *4:38 *1738:A 0
15 *4:38 *1738:B 0
16 *4:38 *1740:B1 0
17 *4:38 *1740:A2 0
18 *4:38 *1744:A1 0
19 *4:38 *1764:CLK 0
20 *4:38 *1809:D 0
21 *4:38 *1908:A 0
22 *4:38 *1964:A 0
23 *4:38 *1987:A 0
24 *4:38 *70:10 0
25 *4:38 *299:16 0
26 *4:38 *303:26 0
27 *4:38 *612:25 0
28 *4:38 *613:14 0
29 *4:38 *674:20 0
30 *4:38 *674:22 0
31 *4:38 *674:98 0
32 *4:38 *677:14 0
33 *4:38 *755:10 0
*RES
1 clk_ref *4:10 43.2574 
2 *4:10 *4:38 41.9564 
3 *4:38 *1834:A 20.9682 
*END

*D_NET *5 0.0024185
*CONN
*P dac_out O
*I *2001:X O *D sg13cmos5l_buf_1
*CAP
1 dac_out 0.000216241
2 *2001:X 0.000278194
3 *5:8 0.000494435
4 *5:8 *102:8 0.000980493
5 *5:8 *640:8 0
6 *5:8 *652:14 0.000449137
*RES
1 *2001:X *5:8 45.047 
2 *5:8 dac_out 22.3278 
*END

*D_NET *6 0.00750917
*CONN
*P rst_ni I
*I *2000:A I *D sg13cmos5l_buf_1
*CAP
1 rst_ni 0.00232615
2 *2000:A 0.00097626
3 *6:9 0.00330242
4 *2000:A *1260:A 0.000112426
5 *2000:A *1627:A1 8.00842e-05
6 *2000:A *1627:A2 1.51e-05
7 *2000:A *1815:D 0.000369563
8 *2000:A *59:8 0
9 *2000:A *585:16 0.000166994
10 *2000:A *585:31 4.77425e-05
11 *2000:A *617:10 0
12 *2000:A *653:60 0.000112426
13 *6:9 *99:18 0
14 *6:9 *655:48 0
15 *6:9 *655:58 0
16 *6:9 *681:10 0
17 *4:10 *6:9 0
*RES
1 rst_ni *6:9 43.69 
2 *6:9 *2000:A 49.7541 
*END

*D_NET *7 0.00134668
*CONN
*P vctrl_b_in I
*I *1832:A I *D sg13cmos5l_buf_1
*CAP
1 vctrl_b_in 0.00067334
2 *1832:A 0
3 *7:13 0.00067334
4 *7:13 *1833:A 0
5 *7:13 *9:9 0
6 *7:13 *33:10 0
7 *7:13 *681:52 0
8 *7:13 *774:25 0
*RES
1 vctrl_b_in *7:13 47.3851 
2 *7:13 *1832:A 20 
*END

*D_NET *8 0.00228736
*CONN
*P vctrl_b_out O
*I *2002:X O *D sg13cmos5l_buf_1
*CAP
1 vctrl_b_out 0.000954897
2 *2002:X 0.000954897
3 vctrl_b_out *1329:B 0.000274189
4 vctrl_b_out *1330:B 0
5 vctrl_b_out *1782:D 0
6 vctrl_b_out *1993:A 0.000103377
7 vctrl_b_out *737:14 0
*RES
1 *2002:X vctrl_b_out 49.6099 
*END

*D_NET *9 0.00392995
*CONN
*P vctrl_in I
*I *1833:A I *D sg13cmos5l_buf_1
*CAP
1 vctrl_in 0.00170189
2 *1833:A 0.000263086
3 *9:9 0.00196497
4 *1833:A *681:52 0
5 *9:9 *681:18 0
6 *9:9 *681:52 0
7 *7:13 *1833:A 0
8 *7:13 *9:9 0
*RES
1 vctrl_in *9:9 41.9905 
2 *9:9 *1833:A 41.9594 
*END

*D_NET *10 0.00137917
*CONN
*P vctrl_out O
*I *2003:X O *D sg13cmos5l_buf_1
*CAP
1 vctrl_out 0.000689585
2 *2003:X 0.000689585
3 vctrl_out *1927:A 0
4 vctrl_out *639:39 0
*RES
1 *2003:X vctrl_out 47.6529 
*END

*D_NET *11 0.00254114
*CONN
*I *1777:D I *D sg13cmos5l_dfrbpq_1
*I *1492:Y O *D sg13cmos5l_nor2_1
*CAP
1 *1777:D 0.000226896
2 *1492:Y 0.000473149
3 *11:12 0.000700045
4 *1777:D *1927:A 0.000240318
5 *1777:D *639:39 0.000304299
6 *11:12 *623:8 0.000306832
7 *11:12 *639:39 0
8 *11:12 *668:10 4.73096e-05
9 *11:12 *668:30 0.000242291
10 *11:12 *688:10 0
*RES
1 *1492:Y *11:12 44.7586 
2 *11:12 *1777:D 42.611 
*END

*D_NET *12 0.00147523
*CONN
*I *1972:A I *D sg13cmos5l_dlygate4sd3_1
*I *1344:Y O *D sg13cmos5l_nor3_1
*CAP
1 *1972:A 2.66648e-05
2 *1344:Y 0.000339763
3 *12:18 0.000366428
4 *1972:A *1412:A 4.7803e-05
5 *1972:A *1413:A2 3.8117e-05
6 *12:18 *1344:B 6.919e-05
7 *12:18 *1413:A2 0.000176223
8 *12:18 *641:66 0
9 *12:18 *739:76 4.77425e-05
10 *12:18 *740:28 7.55443e-05
11 *12:18 *740:30 0.000287759
*RES
1 *1344:Y *12:18 44.1715 
2 *12:18 *1972:A 40.3193 
*END

*D_NET *13 0.00165997
*CONN
*I *1978:A I *D sg13cmos5l_dlygate4sd3_1
*I *1347:Y O *D sg13cmos5l_nor3_1
*CAP
1 *1978:A 3.10519e-05
2 *1347:Y 0.000122823
3 *13:16 0.00022355
4 *13:8 0.000315321
5 *1978:A *1415:B_N 5.73968e-05
6 *1978:A *703:12 5.73968e-05
7 *13:8 *1347:B 0.000175815
8 *13:8 *157:17 0
9 *13:8 *641:72 0.000208271
10 *13:16 *1415:B_N 7.51285e-05
11 *13:16 *157:27 0
12 *13:16 *641:72 0.000393221
*RES
1 *1347:Y *13:8 41.4008 
2 *13:8 *13:16 42.369 
3 *13:16 *1978:A 40.3837 
*END

*D_NET *14 0.00240116
*CONN
*I *1789:D I *D sg13cmos5l_dfrbpq_1
*I *1350:Y O *D sg13cmos5l_inv_1
*CAP
1 *1789:D 0.000182258
2 *1350:Y 0.000560542
3 *14:8 0.000742799
4 *1789:D *1789:RESET_B 0
5 *1789:D *308:26 0
6 *14:8 *1245:A 0
7 *14:8 *157:27 0.000181781
8 *14:8 *308:16 2.22695e-05
9 *14:8 *308:26 0
10 *14:8 *309:36 0.000711511
*RES
1 *1350:Y *14:8 46.0358 
2 *14:8 *1789:D 40.5501 
*END

*D_NET *15 0.00049991
*CONN
*I *1778:D I *D sg13cmos5l_dfrbpq_1
*I *1317:Y O *D sg13cmos5l_nor3_1
*CAP
1 *1778:D 0
2 *1317:Y 6.75341e-05
3 *15:8 6.75341e-05
4 *15:8 *1317:A 0.000236436
5 *15:8 *137:62 0.000128406
*RES
1 *1317:Y *15:8 41.0918 
2 *15:8 *1778:D 40 
*END

*D_NET *16 0.000441033
*CONN
*I *1779:D I *D sg13cmos5l_dfrbpq_1
*I *1320:Y O *D sg13cmos5l_inv_1
*CAP
1 *1779:D 2.60565e-05
2 *1320:Y 5.6171e-05
3 *16:8 8.22275e-05
4 *1779:D *1319:B1 4.77425e-05
5 *1779:D *262:10 4.77425e-05
6 *16:8 *1317:A 0
7 *16:8 *1388:A1 0.000181093
*RES
1 *1320:Y *16:8 40.8446 
2 *16:8 *1779:D 40.3193 
*END

*D_NET *17 0.00100391
*CONN
*I *1780:D I *D sg13cmos5l_dfrbpq_1
*I *1323:Y O *D sg13cmos5l_nor3_1
*CAP
1 *1780:D 0.000275908
2 *1323:Y 0.000275908
3 *1780:D *1319:A2 0
4 *1780:D *1320:A 0
5 *1780:D *1323:C 0
6 *1780:D *1456:A 0.000242313
7 *1780:D *1456:B 0.000209779
8 *1780:D *265:12 0
9 *1780:D *680:43 0
*RES
1 *1323:Y *1780:D 43.1415 
*END

*D_NET *18 0.00103371
*CONN
*I *1781:D I *D sg13cmos5l_dfrbpq_1
*I *1326:Y O *D sg13cmos5l_nor3_1
*CAP
1 *1781:D 0.000118479
2 *1326:Y 0.000158286
3 *18:8 0.000276765
4 *1781:D *1325:A 0
5 *1781:D *143:8 0.000177109
6 *1781:D *143:25 1.54008e-05
7 *18:8 *1452:B 0
8 *18:8 *141:36 0.000287672
9 *18:8 *735:12 0
*RES
1 *1326:Y *18:8 41.8334 
2 *18:8 *1781:D 41.1845 
*END

*D_NET *19 0.00238116
*CONN
*I *1782:D I *D sg13cmos5l_dfrbpq_1
*I *1329:Y O *D sg13cmos5l_nor2_1
*CAP
1 *1782:D 0.000586063
2 *1329:Y 0.000586063
3 *1782:D *1329:B 0.000177164
4 *1782:D *1993:A 0.000192871
5 *1782:D *141:44 0
6 *1782:D *144:20 0.000499628
7 *1782:D *144:24 0
8 *1782:D *145:18 0
9 *1782:D *737:14 0.000339376
10 vctrl_b_out *1782:D 0
*RES
1 *1329:Y *1782:D 46.4581 
*END

*D_NET *20 0.00177357
*CONN
*I *1783:D I *D sg13cmos5l_dfrbpq_1
*I *1332:Y O *D sg13cmos5l_nor3_1
*CAP
1 *1783:D 0.0002253
2 *1332:Y 0.000201052
3 *20:8 0.000426352
4 *1783:D *1335:A 0
5 *1783:D *1923:A 8.01938e-05
6 *1783:D *680:85 0
7 *20:8 *1332:C 0
8 *20:8 *639:101 0.000234311
9 *20:8 *739:14 0.000606365
*RES
1 *1332:Y *20:8 43.0694 
2 *20:8 *1783:D 41.5305 
*END

*D_NET *21 0.0041311
*CONN
*I *1784:D I *D sg13cmos5l_dfrbpq_1
*I *1335:Y O *D sg13cmos5l_nor3_1
*CAP
1 *1784:D 0.000559148
2 *1335:Y 0.000272756
3 *21:8 0.000831903
4 *1784:D *1324:A 0
5 *1784:D *1330:A 0.000241874
6 *1784:D *1332:C 0
7 *1784:D *567:43 0
8 *1784:D *567:47 0.000274189
9 *1784:D *639:101 4.78521e-05
10 *1784:D *721:10 0
11 *1784:D *739:14 0.000241716
12 *21:8 *1470:A 0.00034079
13 *21:8 *1954:A 0.000767208
14 *21:8 *144:20 0
15 *21:8 *145:10 0.000553662
*RES
1 *1335:Y *21:8 45.047 
2 *21:8 *1784:D 45.7268 
*END

*D_NET *22 0.00312115
*CONN
*I *1785:D I *D sg13cmos5l_dfrbpq_1
*I *1338:Y O *D sg13cmos5l_nor3_1
*CAP
1 *1785:D 0
2 *1338:Y 0.000843912
3 *22:10 0.000843912
4 *22:10 *1338:A 7.9947e-05
5 *22:10 *1786:CLK 0.000502289
6 *22:10 *151:21 0
7 *22:10 *567:8 0
8 *22:10 *567:19 0.000851089
9 *22:10 *615:12 0
10 *22:10 *738:10 0
11 *22:10 *739:51 0
12 *22:10 *740:10 0
13 *22:10 *740:18 0
*RES
1 *1338:Y *22:10 49.6305 
2 *22:10 *1785:D 40 
*END

*D_NET *23 0.00322865
*CONN
*I *1786:D I *D sg13cmos5l_dfrbpq_1
*I *1341:Y O *D sg13cmos5l_inv_1
*CAP
1 *1786:D 0.000112264
2 *1341:Y 2.42302e-05
3 *23:16 0.000654428
4 *23:8 0.000566395
5 *1786:D *1342:A2 7.87737e-05
6 *1786:D *1342:B1 0
7 *23:8 *223:26 0.000129197
8 *23:8 *285:10 0.000129197
9 *23:16 *637:66 8.07772e-05
10 *23:16 *681:22 0.000967104
11 *23:16 *739:51 7.68089e-05
12 *23:16 *739:57 0.000409472
*RES
1 *1341:Y *23:8 40.5974 
2 *23:8 *23:16 46.7259 
3 *23:16 *1786:D 40.8802 
*END

*D_NET *24 0.00220797
*CONN
*I *1790:D I *D sg13cmos5l_dfrbpq_1
*I *1479:X O *D sg13cmos5l_a21o_1
*CAP
1 *1790:D 0.000261144
2 *1479:X 0.000587948
3 *24:16 0.000849092
4 *1790:D *1515:A_N 0
5 *1790:D *287:29 0
6 *1790:D *676:31 0
7 *1790:D *758:8 0
8 *24:16 *1751:B 8.02276e-05
9 *24:16 *308:72 0.000145009
10 *24:16 *538:16 8.0194e-05
11 *24:16 *563:98 0.000129135
12 *24:16 *663:79 0
13 *24:16 *676:25 0
14 *24:16 *713:10 7.52158e-05
*RES
1 *1479:X *24:16 46.386 
2 *24:16 *1790:D 42.266 
*END

*D_NET *25 0.00398499
*CONN
*I *1802:D I *D sg13cmos5l_dfrbpq_1
*I *1255:Y O *D sg13cmos5l_inv_1
*CAP
1 *1802:D 0.000249244
2 *1255:Y 0.000114217
3 *25:24 0.000625451
4 *25:16 0.000624922
5 *25:8 0.000362931
6 *1802:D *192:20 0
7 *25:8 *1255:A 0.000112493
8 *25:8 *227:10 0
9 *25:16 *90:12 0.000129604
10 *25:16 *598:14 0
11 *25:16 *626:12 0.000392941
12 *25:16 *678:69 0
13 *25:16 *686:10 0
14 *25:16 *762:42 0.000178645
15 *25:24 *1792:RESET_B 0
16 *25:24 *598:14 0.000441068
17 *25:24 *626:20 0.000572036
18 *25:24 *762:12 0.000181438
*RES
1 *1255:Y *25:8 40.9682 
2 *25:8 *25:16 43.2651 
3 *25:16 *25:24 44.6247 
4 *25:24 *1802:D 41.8334 
*END

*D_NET *26 0.00583297
*CONN
*I *1804:D I *D sg13cmos5l_dfrbpq_1
*I *1256:Y O *D sg13cmos5l_inv_1
*CAP
1 *1804:D 0
2 *1256:Y 7.15154e-05
3 *26:14 0.0018284
4 *26:8 0.00189991
5 *26:14 *1488:B2 0
6 *26:14 *27:12 0.00167894
7 *26:14 *27:29 0
8 *26:14 *162:35 0.000176863
9 *26:14 *298:18 0
10 *26:14 *773:18 0.000177345
*RES
1 *1256:Y *26:8 40.5356 
2 *26:8 *26:14 32.4115 
3 *26:14 *1804:D 20 
*END

*D_NET *27 0.00871762
*CONN
*I *1486:A0 I *D sg13cmos5l_mux2_1
*I *1805:D I *D sg13cmos5l_dfrbpq_1
*I *1257:Y O *D sg13cmos5l_inv_1
*CAP
1 *1486:A0 0.000405394
2 *1805:D 0.000157988
3 *1257:Y 0.000516811
4 *27:29 0.000791075
5 *27:14 0.000543669
6 *27:12 0.000516811
7 *1486:A0 *1486:A1 0.000498566
8 *1486:A0 *770:42 0.000628223
9 *1805:D *172:54 0
10 *1805:D *298:18 0.000208576
11 *27:12 *1257:A 1.54008e-05
12 *27:12 *297:8 0.000660507
13 *27:12 *298:18 7.51285e-05
14 *27:12 *762:12 2.34741e-05
15 *27:12 *762:16 0
16 *27:12 *764:10 0.000340949
17 *27:29 *1488:B2 0.000344506
18 *27:29 *1804:CLK 4.77425e-05
19 *27:29 *172:54 0
20 *27:29 *298:18 4.77425e-05
21 *27:29 *558:12 0.000714369
22 *27:29 *558:23 0.000426623
23 *27:29 *762:16 7.51285e-05
24 *26:14 *27:12 0.00167894
25 *26:14 *27:29 0
*RES
1 *1257:Y *27:12 48.446 
2 *27:12 *27:14 20 
3 *27:14 *1805:D 21.4008 
4 *27:14 *27:29 46.0461 
5 *27:29 *1486:A0 24.5629 
*END

*D_NET *28 0.00451025
*CONN
*I *1483:A1 I *D sg13cmos5l_o21ai_1
*I *1801:D I *D sg13cmos5l_dfrbpq_1
*I *1248:Y O *D sg13cmos5l_inv_1
*CAP
1 *1483:A1 0.000208105
2 *1801:D 0.000128266
3 *1248:Y 0.000548501
4 *28:16 0.000552111
5 *28:8 0.00118045
6 *1483:A1 *1483:B1 4.76053e-05
7 *1483:A1 *1484:C1 0
8 *1483:A1 *163:74 4.77425e-05
9 *1483:A1 *209:32 7.97166e-05
10 *1801:D *1484:B2 0.000177225
11 *28:8 *1249:A 0.00087619
12 *28:8 *209:32 0
13 *28:8 *770:8 0.000372971
14 *28:8 *770:42 0.000160341
15 *28:16 *1249:A 0.000131027
16 *28:16 *1483:B1 0
17 *28:16 *163:74 0
*RES
1 *1248:Y *28:8 46.5302 
2 *28:8 *28:16 44.1612 
3 *28:16 *1801:D 41.1845 
4 *28:8 *1483:A1 42.0703 
*END

*D_NET *29 0.000609822
*CONN
*I *1806:D I *D sg13cmos5l_dfrbpq_1
*I *1249:Y O *D sg13cmos5l_inv_1
*CAP
1 *1806:D 0
2 *1249:Y 0.000134772
3 *29:8 0.000134772
4 *29:8 *1249:A 0
5 *29:8 *31:12 0.000340278
6 *29:8 *674:51 0
*RES
1 *1249:Y *29:8 41.5862 
2 *29:8 *1806:D 40 
*END

*D_NET *30 0.00143603
*CONN
*I *1795:D I *D sg13cmos5l_dfrbpq_1
*I *1250:Y O *D sg13cmos5l_inv_1
*CAP
1 *1795:D 0
2 *1250:Y 0.000109076
3 *30:8 0.000109076
4 *30:8 *674:51 0.000608941
5 *30:8 *681:18 0.000608941
*RES
1 *1250:Y *30:8 42.8222 
2 *30:8 *1795:D 40 
*END

*D_NET *31 0.00272778
*CONN
*I *1796:D I *D sg13cmos5l_dfrbpq_1
*I *1251:Y O *D sg13cmos5l_inv_1
*CAP
1 *1796:D 0.000160838
2 *1251:Y 0.00076069
3 *31:12 0.000921528
4 *1796:D *293:14 0
5 *1796:D *546:39 0
6 *1796:D *552:29 8.0057e-05
7 *1796:D *658:76 0
8 *31:12 *546:48 0
9 *31:12 *555:14 0
10 *31:12 *766:15 0
11 *31:12 *769:14 0.00044893
12 *31:12 *772:20 0
13 *31:12 *772:28 1.54556e-05
14 *29:8 *31:12 0.000340278
*RES
1 *1251:Y *31:12 48.0649 
2 *31:12 *1796:D 41.4008 
*END

*D_NET *32 0.0041378
*CONN
*I *1798:D I *D sg13cmos5l_dfrbpq_1
*I *1252:Y O *D sg13cmos5l_inv_1
*CAP
1 *1798:D 0
2 *1252:Y 0
3 *32:10 0.000785156
4 *32:6 0.000785156
5 *32:10 *202:103 0
6 *32:10 *288:18 0.000448675
7 *32:10 *295:10 0
8 *32:10 *296:8 0
9 *32:10 *641:28 0
10 *32:10 *656:12 0.000446304
11 *32:10 *656:18 0.00167251
*RES
1 *1252:Y *32:6 40 
2 *32:6 *32:10 30.9798 
3 *32:10 *1798:D 20 
*END

*D_NET *33 0.010547
*CONN
*I *1486:A1 I *D sg13cmos5l_mux2_1
*I *1799:D I *D sg13cmos5l_dfrbpq_1
*I *1253:Y O *D sg13cmos5l_inv_1
*CAP
1 *1486:A1 0.0011827
2 *1799:D 0
3 *1253:Y 0
4 *33:10 0.00276447
5 *33:6 0.00158177
6 *1486:A1 *1798:RESET_B 0
7 *1486:A1 *1842:A 0
8 *1486:A1 *1848:A 0
9 *1486:A1 *294:10 0
10 *1486:A1 *546:48 0
11 *1486:A1 *770:42 0
12 *1486:A1 *772:10 0.000208615
13 *1486:A1 *773:18 0
14 *33:10 *162:35 0.00284851
15 *33:10 *293:18 0.00146238
16 *33:10 *552:12 0
17 *33:10 *662:8 0
18 *33:10 *680:10 0
19 *33:10 *680:27 0
20 *33:10 *681:52 0
21 *33:10 *774:25 0
22 *1486:A0 *1486:A1 0.000498566
23 *7:13 *33:10 0
*RES
1 *1253:Y *33:6 40 
2 *33:6 *33:10 40.6206 
3 *33:10 *1799:D 20 
4 *33:10 *1486:A1 30.7029 
*END

*D_NET *34 0.0019015
*CONN
*I *1800:D I *D sg13cmos5l_dfrbpq_1
*I *1254:Y O *D sg13cmos5l_inv_1
*CAP
1 *1800:D 0.000165464
2 *1254:Y 0.000103158
3 *34:8 0.000268622
4 *1800:D *161:10 0.000240196
5 *1800:D *171:61 1.54008e-05
6 *34:8 *680:121 0.000554078
7 *34:8 *774:25 0.000554579
*RES
1 *1254:Y *34:8 42.575 
2 *34:8 *1800:D 41.6171 
*END

*D_NET *35 0.0113695
*CONN
*I *1991:A I *D sg13cmos5l_dlygate4sd3_1
*I *1312:Y O *D sg13cmos5l_o21ai_1
*CAP
1 *1991:A 0
2 *1312:Y 0.000475213
3 *35:22 0.000673096
4 *35:14 0.00185218
5 *35:10 0.0016543
6 *35:10 *129:14 0.00188328
7 *35:10 *130:12 0.00156915
8 *35:10 *706:48 0.000208063
9 *35:14 *1773:RESET_B 0.000598318
10 *35:14 *1775:RESET_B 0
11 *35:14 *1775:CLK 0.000160321
12 *35:14 *1820:CLK 0
13 *35:14 *494:14 0
14 *35:14 *562:12 0.000565311
15 *35:14 *562:19 0.000676952
16 *35:14 *670:32 8.00951e-05
17 *35:14 *670:42 0
18 *35:14 *670:51 0
19 *35:22 *1579:C 0
20 *35:22 *1676:A2 1.54008e-05
21 *35:22 *1686:A 8.00842e-05
22 *35:22 *1686:B 0
23 *35:22 *1689:B1 0
24 *35:22 *1689:A2 0.000403022
25 *35:22 *64:8 0.000394981
26 *35:22 *65:8 0
27 *35:22 *578:10 7.9706e-05
28 *35:22 *648:61 0
*RES
1 *1312:Y *35:10 49.4142 
2 *35:10 *35:14 32.2158 
3 *35:14 *35:22 47.0932 
4 *35:22 *1991:A 20 
*END

*D_NET *36 0.00472581
*CONN
*I *1965:A I *D sg13cmos5l_dlygate4sd3_1
*I *1311:X O *D sg13cmos5l_xor2_1
*CAP
1 *1965:A 0.000875354
2 *1311:X 0.000620864
3 *36:10 0.00149622
4 *1965:A *1261:A 0
5 *1965:A *1500:B 0
6 *1965:A *1500:C 1.54008e-05
7 *1965:A *95:10 0
8 *1965:A *547:15 0
9 *1965:A *674:43 0.000532257
10 *1965:A *690:10 0.000395068
11 *1965:A *716:8 0
12 *1965:A *766:15 0
13 *1965:A *767:21 0
14 *36:10 *1261:A 0
15 *36:10 *1310:A 0
16 *36:10 *95:10 0
17 *36:10 *689:14 0.00055542
18 *36:10 *741:8 0.000235228
*RES
1 *1311:X *36:10 46.8495 
2 *36:10 *1965:A 49.1052 
*END

*D_NET *37 0.0030955
*CONN
*I *1929:A I *D sg13cmos5l_dlygate4sd3_1
*I *1300:X O *D sg13cmos5l_xor2_1
*CAP
1 *1929:A 0
2 *1300:X 0
3 *37:12 0.00118718
4 *37:6 0.00118718
5 *37:12 *1297:A 0
6 *37:12 *1820:CLK 0
7 *37:12 *1928:A 0
8 *37:12 *48:12 0
9 *37:12 *66:12 0
10 *37:12 *382:34 0
11 *37:12 *494:14 0
12 *37:12 *562:8 0.000608769
13 *37:12 *600:8 0
14 *37:12 *646:46 0.000112376
15 *37:12 *646:59 0
*RES
1 *1300:X *37:6 40 
2 *37:6 *37:12 33.1222 
3 *37:12 *1929:A 20 
*END

*D_NET *38 0.0021385
*CONN
*I *1921:A I *D sg13cmos5l_dlygate4sd3_1
*I *1303:Y O *D sg13cmos5l_xnor2_1
*CAP
1 *1921:A 0.000170966
2 *1303:Y 0.000503156
3 *38:8 0.000674121
4 *1921:A *1920:A 0
5 *38:8 *1302:B 0.000394442
6 *38:8 *130:12 0.000395811
7 *38:8 *590:8 0
*RES
1 *1303:Y *38:8 45.047 
2 *38:8 *1921:A 41.4008 
*END

*D_NET *39 0.00183959
*CONN
*I *1775:D I *D sg13cmos5l_dfrbpq_1
*I *1309:Y O *D sg13cmos5l_xnor2_1
*CAP
1 *1775:D 5.51575e-05
2 *1309:Y 0.00040205
3 *39:10 0.000457208
4 *1775:D *1775:RESET_B 0
5 *1775:D *1920:A 0
6 *39:10 *1309:A 0
7 *39:10 *1820:CLK 0.000240691
8 *39:10 *130:12 0
9 *39:10 *563:32 7.51285e-05
10 *39:10 *643:107 0.000609354
*RES
1 *1309:Y *39:10 44.4393 
2 *39:10 *1775:D 40.5356 
*END

*D_NET *40 0.00282695
*CONN
*I *1989:A I *D sg13cmos5l_dlygate4sd3_1
*I *1310:X O *D sg13cmos5l_xor2_1
*CAP
1 *1989:A 0.000151147
2 *1310:X 0.000655789
3 *40:10 0.000806936
4 *1989:A *336:10 0.000110983
5 *1989:A *611:10 0
6 *40:10 *1262:A2 0
7 *40:10 *1310:B 0.000242018
8 *40:10 *95:10 0.000450066
9 *40:10 *313:37 0.000129491
10 *40:10 *677:14 0.000265119
11 *40:10 *689:14 1.54008e-05
*RES
1 *1310:X *40:10 46.4787 
2 *40:10 *1989:A 41.4008 
*END

*D_NET *41 0.000218976
*CONN
*I *1765:D I *D sg13cmos5l_dfrbpq_1
*I *1762:Y O *D sg13cmos5l_xnor2_1
*CAP
1 *1765:D 8.56167e-05
2 *1762:Y 8.56167e-05
3 *1765:D *1263:A 4.77425e-05
4 *1765:D *97:16 0
*RES
1 *1762:Y *1765:D 40.9167 
*END

*D_NET *42 0.00146571
*CONN
*I *1933:A I *D sg13cmos5l_dlygate4sd3_1
*I *1268:X O *D sg13cmos5l_xor2_1
*CAP
1 *1933:A 0.000500583
2 *1268:X 0.000500583
3 *1933:A *1268:B 0
4 *1933:A *1279:B1 0.00014448
5 *1933:A *1536:A 0.000272647
6 *1933:A *1766:D 4.74163e-05
*RES
1 *1268:X *1933:A 45.1706 
*END

*D_NET *43 0.000959798
*CONN
*I *1767:D I *D sg13cmos5l_dfrbpq_1
*I *1272:X O *D sg13cmos5l_xor2_1
*CAP
1 *1767:D 0.000311223
2 *1272:X 0.000311223
3 *1767:D *1272:B 0.00017634
4 *1767:D *1273:A2 0
5 *1767:D *104:25 0.000161013
6 *1767:D *719:12 0
*RES
1 *1272:X *1767:D 43.3269 
*END

*D_NET *44 0.000813394
*CONN
*I *1918:A I *D sg13cmos5l_dlygate4sd3_1
*I *1276:Y O *D sg13cmos5l_xnor2_1
*CAP
1 *1918:A 5.03155e-05
2 *1276:Y 0.000145529
3 *44:8 0.000195845
4 *1918:A *719:12 8.00842e-05
5 *44:8 *378:51 0.00034162
*RES
1 *1276:Y *44:8 41.5862 
2 *44:8 *1918:A 40.5356 
*END

*D_NET *45 0.00169052
*CONN
*I *1769:D I *D sg13cmos5l_dfrbpq_1
*I *1282:Y O *D sg13cmos5l_nor2b_1
*CAP
1 *1769:D 0
2 *1282:Y 0.00033264
3 *45:8 0.00033264
4 *45:8 *110:18 0
5 *45:8 *620:10 0
6 *45:8 *633:12 0.000287845
7 *45:8 *648:35 0
8 *45:8 *649:14 0.000341722
9 *45:8 *649:36 0.000395669
*RES
1 *1282:Y *45:8 44.5526 
2 *45:8 *1769:D 40 
*END

*D_NET *46 0.00114697
*CONN
*I *1770:D I *D sg13cmos5l_dfrbpq_1
*I *1287:Y O *D sg13cmos5l_nor2b_1
*CAP
1 *1770:D 4.25262e-05
2 *1287:Y 0.000450741
3 *46:8 0.000493267
4 *1770:D *113:14 8.0216e-05
5 *1770:D *671:49 8.0216e-05
6 *46:8 *1282:A 0
7 *46:8 *111:12 0
8 *46:8 *113:10 0
9 *46:8 *461:8 0
10 *46:8 *648:35 0
*RES
1 *1287:Y *46:8 44.3054 
2 *46:8 *1770:D 40.5356 
*END

*D_NET *47 0.00191958
*CONN
*I *1771:D I *D sg13cmos5l_dfrbpq_1
*I *1291:Y O *D sg13cmos5l_nor2_1
*CAP
1 *1771:D 9.99222e-05
2 *1291:Y 0.00059266
3 *47:10 0.000692582
4 *1771:D *671:49 0.000143932
5 *47:10 *1292:B1 4.77425e-05
6 *47:10 *118:8 0
7 *47:10 *605:27 0
8 *47:10 *629:16 0.000342745
9 *47:10 *648:8 0
*RES
1 *1291:Y *47:10 45.6135 
2 *47:10 *1771:D 40.9682 
*END

*D_NET *48 0.00291787
*CONN
*I *1936:A I *D sg13cmos5l_dlygate4sd3_1
*I *1296:Y O *D sg13cmos5l_xnor2_1
*CAP
1 *1936:A 0
2 *1296:Y 0.00132157
3 *48:12 0.00132157
4 *48:12 *1296:A 0
5 *48:12 *1296:B 0
6 *48:12 *122:12 0
7 *48:12 *126:10 0.000274726
8 *48:12 *646:59 0
9 *48:12 *647:14 0
10 *48:12 *647:42 0
11 *37:12 *48:12 0
*RES
1 *1296:Y *48:12 49.1155 
2 *48:12 *1936:A 40 
*END

*D_NET *49 0.0016323
*CONN
*I *1955:A I *D sg13cmos5l_dlygate4sd3_1
*I *1808:Q O *D sg13cmos5l_dfrbpq_1
*CAP
1 *1955:A 0.000494635
2 *1808:Q 0.000233521
3 *49:12 0.000728156
4 *1955:A *1353:B_N 4.77425e-05
5 *1955:A *1402:A1 0
6 *1955:A *174:31 0
7 *1955:A *256:10 0
8 *1955:A *624:12 0
9 *49:12 *1447:B 0
10 *49:12 *1861:A 0
11 *49:12 *50:20 0
12 *49:12 *163:50 0.000128248
13 *49:12 *180:14 0
14 *49:12 *665:107 0
*RES
1 *1808:Q *49:12 42.472 
2 *49:12 *1955:A 44.326 
*END

*D_NET *50 0.00736428
*CONN
*I *1890:A I *D sg13cmos5l_buf_1
*I *1951:A I *D sg13cmos5l_dlygate4sd3_1
*I *1809:Q O *D sg13cmos5l_dfrbpq_1
*CAP
1 *1890:A 0.000732731
2 *1951:A 0
3 *1809:Q 0.000952348
4 *50:20 0.00151243
5 *50:14 0.00173204
6 *1890:A *1353:B_N 0.000289628
7 *1890:A *1374:B1 4.77425e-05
8 *1890:A *203:41 0
9 *1890:A *203:43 0.00023671
10 *1890:A *209:24 0
11 *1890:A *256:10 0.000714713
12 *1890:A *628:10 0.000177032
13 *1890:A *660:20 1.03955e-05
14 *1890:A *664:81 0
15 *1890:A *664:111 0.000144877
16 *1890:A *665:107 0
17 *50:14 *1825:D 0.000177164
18 *50:14 *1995:A 0.000219437
19 *50:14 *180:24 0
20 *50:14 *193:12 0
21 *50:14 *193:22 0
22 *50:14 *682:20 0
23 *50:14 *724:10 7.53228e-05
24 *50:20 *53:16 0
25 *50:20 *180:14 0
26 *50:20 *180:24 0
27 *50:20 *676:73 0
28 *50:20 *682:20 0.000341707
29 *50:20 *776:48 0
30 *49:12 *50:20 0
*RES
1 *1809:Q *50:14 49.2803 
2 *50:14 *50:20 8.4768 
3 *50:20 *1951:A 40 
4 *50:20 *1890:A 48.5876 
*END

*D_NET *51 0.0039025
*CONN
*I *1924:A I *D sg13cmos5l_dlygate4sd3_1
*I *1583:A I *D sg13cmos5l_nand2_1
*I *1823:Q O *D sg13cmos5l_dfrbpq_1
*CAP
1 *1924:A 0
2 *1583:A 0.000515032
3 *1823:Q 9.30392e-05
4 *51:25 0.000584362
5 *51:6 0.00119243
6 *1583:A *1558:B 6.31433e-05
7 *1583:A *1727:A1 0.000176742
8 *1583:A *1728:A0 0.000184858
9 *1583:A *1728:S 8.00842e-05
10 *1583:A *362:39 0.000208682
11 *1583:A *563:22 0.0001444
12 *51:6 *1914:A 0
13 *51:6 *563:22 0
14 *51:25 *311:100 0
15 *51:25 *314:29 0
16 *51:25 *519:10 0.000659725
17 *51:25 *695:10 0
*RES
1 *1823:Q *51:6 20.7519 
2 *51:6 *1583:A 25.0985 
3 *51:6 *51:25 45.3045 
4 *51:25 *1924:A 20 
*END

*D_NET *52 0.00402773
*CONN
*I *1992:A I *D sg13cmos5l_dlygate4sd3_1
*I *1738:A I *D sg13cmos5l_xnor2_1
*I *1231:A I *D sg13cmos5l_inv_1
*I *1824:Q O *D sg13cmos5l_dfrbpq_1
*CAP
1 *1992:A 0
2 *1738:A 0.000512861
3 *1231:A 0.000269573
4 *1824:Q 0.000213881
5 *52:14 0.00097975
6 *52:8 0.000411197
7 *1231:A *1564:A2 0
8 *1231:A *78:10 0.000181051
9 *1231:A *202:52 0
10 *1231:A *526:12 0
11 *1231:A *660:124 0.000234224
12 *1738:A *1738:B 1.54556e-05
13 *1738:A *70:10 0.000501301
14 *1738:A *193:22 7.51285e-05
15 *1738:A *526:12 0
16 *1738:A *655:126 0
17 *1738:A *660:124 5.30319e-05
18 *1738:A *674:22 0.000226655
19 *1738:A *674:26 8.00842e-05
20 *52:8 *1740:A2 0
21 *52:8 *332:8 0
22 *52:14 *1529:B1 0.00027354
23 *52:14 *1740:A1 0
24 *52:14 *1740:A2 0
25 *52:14 *78:10 0
26 *4:38 *1738:A 0
*RES
1 *1824:Q *52:8 21.9982 
2 *52:8 *52:14 22.1527 
3 *52:14 *1231:A 42.7501 
4 *52:14 *1738:A 45.8607 
5 *52:8 *1992:A 20 
*END

*D_NET *53 0.0028361
*CONN
*I *1808:D I *D sg13cmos5l_dfrbpq_1
*I *1495:Y O *D sg13cmos5l_a21oi_1
*CAP
1 *1808:D 0
2 *1495:Y 0.000135029
3 *53:16 0.000594337
4 *53:8 0.000729366
5 *53:8 *135:46 0.000341621
6 *53:8 *135:52 0.00012816
7 *53:8 *299:22 0
8 *53:16 *1808:RESET_B 0.000566289
9 *53:16 *180:24 0.000341293
10 *53:16 *258:27 0
11 *53:16 *550:6 0
12 *53:16 *550:15 0
13 *3:23 *53:16 0
14 *50:20 *53:16 0
*RES
1 *1495:Y *53:8 42.0806 
2 *53:8 *53:16 46.3825 
3 *53:16 *1808:D 40 
*END

*D_NET *54 0.000493154
*CONN
*I *1809:D I *D sg13cmos5l_dfrbpq_1
*I *1499:Y O *D sg13cmos5l_xnor2_1
*CAP
1 *1809:D 0.000231121
2 *1499:Y 0.000231121
3 *1809:D *70:10 1.54556e-05
4 *1809:D *303:26 1.54556e-05
5 *1809:D *677:14 0
6 *4:38 *1809:D 0
*RES
1 *1499:Y *1809:D 42.3124 
*END

*D_NET *55 0.00327877
*CONN
*I *1810:D I *D sg13cmos5l_dfrbpq_1
*I *1503:Y O *D sg13cmos5l_xnor2_1
*CAP
1 *1810:D 0
2 *1503:Y 0.00047487
3 *55:10 0.00047487
4 *55:10 *1501:A 0.000181695
5 *55:10 *180:58 0.000181781
6 *55:10 *258:37 0.000499886
7 *55:10 *292:10 0.000531723
8 *55:10 *554:10 0.000434566
9 *55:10 *636:33 0
10 *55:10 *675:40 0
11 *55:10 *683:8 0.000499383
*RES
1 *1503:Y *55:10 47.1276 
2 *55:10 *1810:D 40 
*END

*D_NET *56 0.000522711
*CONN
*I *1811:D I *D sg13cmos5l_dfrbpq_1
*I *1600:Y O *D sg13cmos5l_o21ai_1
*CAP
1 *1811:D 0.000253655
2 *1600:Y 0.000253655
3 *1811:D *1600:A2 0
4 *1811:D *1811:RESET_B 1.54008e-05
5 *1811:D *1823:D 0
6 *1811:D *586:76 0
7 *1811:D *586:101 0
*RES
1 *1600:Y *1811:D 42.6265 
*END

*D_NET *57 0.00146405
*CONN
*I *1941:A I *D sg13cmos5l_dlygate4sd3_1
*I *1612:Y O *D sg13cmos5l_a22oi_1
*CAP
1 *1941:A 0.000176459
2 *1612:Y 0.000282158
3 *57:10 0.000458617
4 *1941:A *1601:A1 0
5 *1941:A *677:14 0
6 *57:10 *1612:B1 4.77425e-05
7 *57:10 *85:20 0
8 *57:10 *306:14 0.000499076
*RES
1 *1612:Y *57:10 43.0488 
2 *57:10 *1941:A 41.4008 
*END

*D_NET *58 0.00163272
*CONN
*I *1813:D I *D sg13cmos5l_dfrbpq_1
*I *1619:Y O *D sg13cmos5l_a22oi_1
*CAP
1 *1813:D 0.000567297
2 *1619:Y 0.000567297
3 *1813:D *1613:B 0
4 *1813:D *1614:A1 1.52636e-05
5 *1813:D *1619:B1 0.000435116
6 *1813:D *1619:B2 4.77425e-05
7 *1813:D *93:24 0
8 *1813:D *313:37 0
9 *1813:D *689:24 0
*RES
1 *1619:Y *1813:D 45.5826 
*END

*D_NET *59 0.00606822
*CONN
*I *1814:D I *D sg13cmos5l_dfrbpq_1
*I *1627:Y O *D sg13cmos5l_o21ai_1
*CAP
1 *1814:D 0
2 *1627:Y 0.00037592
3 *59:14 0.00049956
4 *59:8 0.00087548
5 *59:8 *1627:A2 0
6 *59:8 *1932:A 0
7 *59:8 *60:10 0
8 *59:8 *420:20 1.54008e-05
9 *59:8 *585:16 4.73096e-05
10 *59:14 *94:12 0.00215384
11 *59:14 *689:24 0.00210072
12 *2000:A *59:8 0
*RES
1 *1627:Y *59:8 43.1312 
2 *59:8 *59:14 30.7738 
3 *59:14 *1814:D 20 
*END

*D_NET *60 0.00209799
*CONN
*I *1815:D I *D sg13cmos5l_dfrbpq_1
*I *1641:Y O *D sg13cmos5l_o21ai_1
*CAP
1 *1815:D 0.000214652
2 *1641:Y 0.000278966
3 *60:10 0.000493618
4 *1815:D *1816:CLK 0.000337221
5 *60:10 *1652:A2 0
6 *60:10 *427:18 1.54556e-05
7 *60:10 *585:16 4.73096e-05
8 *60:10 *695:43 0.000341205
9 *60:10 *706:91 0
10 *2000:A *1815:D 0.000369563
11 *59:8 *60:10 0
*RES
1 *1641:Y *60:10 42.7707 
2 *60:10 *1815:D 42.4823 
*END

*D_NET *61 0.000443489
*CONN
*I *1816:D I *D sg13cmos5l_dfrbpq_1
*I *1652:Y O *D sg13cmos5l_o21ai_1
*CAP
1 *1816:D 0.000133911
2 *1652:Y 0.000133911
3 *1816:D *440:16 0.000175667
4 *1816:D *706:91 0
*RES
1 *1652:Y *1816:D 41.1845 
*END

*D_NET *62 0.00421251
*CONN
*I *1817:D I *D sg13cmos5l_dfrbpq_1
*I *1664:Y O *D sg13cmos5l_o21ai_1
*CAP
1 *1817:D 0
2 *1664:Y 7.51016e-05
3 *62:16 0.000870544
4 *62:10 0.000945646
5 *62:10 *1659:A1 2.18115e-05
6 *62:10 *1664:B1 1.54008e-05
7 *62:10 *1664:A1 0
8 *62:10 *454:17 8.01609e-05
9 *62:16 *1770:CLK 0
10 *62:16 *1947:A 0
11 *62:16 *106:33 0
12 *62:16 *109:31 0
13 *62:16 *560:8 0
14 *62:16 *560:14 0
15 *62:16 *576:33 0
16 *62:16 *652:20 0.00220385
*RES
1 *1664:Y *62:10 40.8858 
2 *62:10 *62:16 32.0716 
3 *62:16 *1817:D 20 
*END

*D_NET *63 0.00213049
*CONN
*I *1818:D I *D sg13cmos5l_dfrbpq_1
*I *1676:Y O *D sg13cmos5l_o21ai_1
*CAP
1 *1818:D 0.000136515
2 *1676:Y 0.000160569
3 *63:8 0.000297084
4 *1818:D *1818:RESET_B 0
5 *1818:D *1944:A 0
6 *1818:D *616:10 0
7 *63:8 *111:12 0.000821899
8 *63:8 *472:8 0
9 *63:8 *751:10 0.000714418
*RES
1 *1676:Y *63:8 43.811 
2 *63:8 *1818:D 41.1845 
*END

*D_NET *64 0.00246846
*CONN
*I *1819:D I *D sg13cmos5l_dfrbpq_1
*I *1689:Y O *D sg13cmos5l_o21ai_1
*CAP
1 *1819:D 0.000134716
2 *1689:Y 0.000411777
3 *64:8 0.000546493
4 *1819:D *1771:CLK 0
5 *1819:D *1820:D 0
6 *1819:D *671:53 0
7 *64:8 *65:8 0
8 *64:8 *607:10 0.000980494
9 *64:8 *646:59 0
10 *64:8 *670:19 0
11 *64:8 *670:32 0
12 *35:22 *64:8 0.000394981
*RES
1 *1689:Y *64:8 46.283 
2 *64:8 *1819:D 41.4008 
*END

*D_NET *65 0.0027738
*CONN
*I *1820:D I *D sg13cmos5l_dfrbpq_1
*I *1700:Y O *D sg13cmos5l_o21ai_1
*CAP
1 *1820:D 0.000422669
2 *1700:Y 0.000873661
3 *65:8 0.00129633
4 *1820:D *1771:CLK 0
5 *1820:D *1772:CLK 0
6 *1820:D *1773:CLK 0
7 *1820:D *562:38 0
8 *1820:D *607:10 0
9 *65:8 *372:115 0
10 *65:8 *476:10 0
11 *65:8 *491:10 0.000181145
12 *65:8 *492:10 0
13 *65:8 *586:128 0
14 *65:8 *647:42 0
15 *65:8 *647:50 0
16 *65:8 *670:32 0
17 *1819:D *1820:D 0
18 *35:22 *65:8 0
19 *64:8 *65:8 0
*RES
1 *1700:Y *65:8 48.755 
2 *65:8 *1820:D 43.914 
*END

*D_NET *66 0.00254924
*CONN
*I *1821:D I *D sg13cmos5l_dfrbpq_1
*I *1711:Y O *D sg13cmos5l_o21ai_1
*CAP
1 *1821:D 0.000269744
2 *1711:Y 0.000828482
3 *66:12 0.00109823
4 *1821:D *1928:A 0
5 *1821:D *562:29 0
6 *66:12 *1582:A 0
7 *66:12 *1711:A1 0.000176509
8 *66:12 *1711:A2 0
9 *66:12 *1715:B 0
10 *66:12 *385:8 4.7947e-05
11 *66:12 *494:14 0
12 *66:12 *499:8 0
13 *66:12 *600:8 0.000128334
14 *66:12 *644:47 0
15 *66:12 *646:46 0
16 *37:12 *66:12 0
*RES
1 *1711:Y *66:12 48.7756 
2 *66:12 *1821:D 42.266 
*END

*D_NET *67 0.000489722
*CONN
*I *1822:D I *D sg13cmos5l_dfrbpq_1
*I *1724:X O *D sg13cmos5l_a21o_1
*CAP
1 *1822:D 0.000244861
2 *1724:X 0.000244861
3 *1822:D *1712:A 0
4 *1822:D *1724:B1 0
*RES
1 *1724:X *1822:D 42.0497 
*END

*D_NET *68 0.000637137
*CONN
*I *1926:A I *D sg13cmos5l_dlygate4sd3_1
*I *1730:Y O *D sg13cmos5l_a22oi_1
*CAP
1 *1926:A 0.00030752
2 *1730:Y 0.00030752
3 *1926:A *1730:A2 2.20968e-05
4 *1926:A *314:23 0
*RES
1 *1730:Y *1926:A 42.5338 
*END

*D_NET *69 0.000790677
*CONN
*I *1824:D I *D sg13cmos5l_dfrbpq_1
*I *1736:X O *D sg13cmos5l_a21o_1
*CAP
1 *1824:D 0.000256453
2 *1736:X 0.000256453
3 *1824:D *1732:B_N 0.000175513
4 *1824:D *1737:A 8.00842e-05
5 *1824:D *521:36 0
6 *1824:D *526:12 2.21754e-05
7 *1824:D *619:87 0
*RES
1 *1736:X *1824:D 42.3999 
*END

*D_NET *70 0.00210379
*CONN
*I *1975:A I *D sg13cmos5l_dlygate4sd3_1
*I *1740:Y O *D sg13cmos5l_o21ai_1
*CAP
1 *1975:A 0.000173501
2 *1740:Y 0.000422456
3 *70:10 0.000595957
4 *1975:A *1741:A 8.02379e-05
5 *1975:A *193:22 0
6 *1975:A *564:18 0
7 *70:10 *1740:B1 8.02379e-05
8 *70:10 *1744:A1 0
9 *70:10 *193:22 0
10 *70:10 *527:8 0
11 *70:10 *636:33 0
12 *70:10 *674:98 0.00023464
13 *1738:A *70:10 0.000501301
14 *1809:D *70:10 1.54556e-05
15 *4:38 *70:10 0
*RES
1 *1740:Y *70:10 45.0882 
2 *70:10 *1975:A 41.8334 
*END

*D_NET *71 0.000998509
*CONN
*I *1996:A I *D sg13cmos5l_dlygate4sd3_1
*I *1744:Y O *D sg13cmos5l_o21ai_1
*CAP
1 *1996:A 0.000426994
2 *1744:Y 0.000426994
3 *1996:A *1744:A2 0
4 *1996:A *300:24 0
5 *1996:A *676:25 0
6 *1996:A *756:8 0.000144521
*RES
1 *1744:Y *1996:A 44.1612 
*END

*D_NET *72 0.00284284
*CONN
*I *1980:A I *D sg13cmos5l_dlygate4sd3_1
*I *1749:Y O *D sg13cmos5l_o21ai_1
*CAP
1 *1980:A 0
2 *1749:Y 0.000222443
3 *72:8 0.000222443
4 *72:8 *180:24 0.00119886
5 *72:8 *332:14 0.0011991
*RES
1 *1749:Y *72:8 45.5414 
2 *72:8 *1980:A 40 
*END

*D_NET *73 0.00135389
*CONN
*I *1986:A I *D sg13cmos5l_dlygate4sd3_1
*I *1753:Y O *D sg13cmos5l_o21ai_1
*CAP
1 *1986:A 0.000511226
2 *1753:Y 0.000511226
3 *1986:A *1753:A2 0
4 *1986:A *135:52 9.00183e-05
5 *1986:A *287:29 0
6 *1986:A *595:37 0
7 *1986:A *758:8 0.000241423
*RES
1 *1753:Y *1986:A 44.6968 
*END

*D_NET *74 0.00229428
*CONN
*I *1983:A I *D sg13cmos5l_dlygate4sd3_1
*I *1756:Y O *D sg13cmos5l_a21oi_1
*CAP
1 *1983:A 5.59585e-05
2 *1756:Y 0.000367535
3 *74:10 0.000423493
4 *1983:A *1743:B 0
5 *1983:A *712:35 6.99453e-05
6 *74:10 *1755:A2 0.000143667
7 *74:10 *1756:B1 0
8 *74:10 *410:71 0.000183039
9 *74:10 *521:14 0.000176007
10 *74:10 *523:25 0
11 *74:10 *563:98 0.00087464
12 *74:10 *585:56 0
*RES
1 *1756:Y *74:10 45.2427 
2 *74:10 *1983:A 40.6695 
*END

*D_NET *75 0.00111345
*CONN
*I *1967:A I *D sg13cmos5l_dlygate4sd3_1
*I *1758:Y O *D sg13cmos5l_o21ai_1
*CAP
1 *1967:A 0.000516629
2 *1758:Y 0.000516629
3 *1967:A *1758:B1 0
4 *1967:A *583:10 0
5 *1967:A *642:18 0
6 *1967:A *655:12 0
7 *1967:A *692:10 0
8 *1967:A *754:50 8.01938e-05
*RES
1 *1758:Y *1967:A 44.8616 
*END

*D_NET *76 0.0021516
*CONN
*I *1969:A I *D sg13cmos5l_dlygate4sd3_1
*I *1760:Y O *D sg13cmos5l_o21ai_1
*CAP
1 *1969:A 0
2 *1760:Y 0.000350663
3 *76:8 0.000350663
4 *76:8 *157:27 0
5 *76:8 *308:16 0
6 *76:8 *308:26 0.000128991
7 *76:8 *694:8 0.00071409
8 *76:8 *726:10 0.000607195
*RES
1 *1760:Y *76:8 45.2942 
2 *76:8 *1969:A 40 
*END

*D_NET *77 0.00116437
*CONN
*I *1807:D I *D sg13cmos5l_dfrbpq_1
*I *1761:X O *D sg13cmos5l_xor2_1
*CAP
1 *1807:D 0.000582187
2 *1761:X 0.000582187
3 *1807:D *1477:B1 0
4 *1807:D *1504:C1 0
5 *1807:D *1507:A 0
6 *1807:D *550:6 0
7 *1807:D *550:15 0
8 *1807:D *550:28 0
*RES
1 *1761:X *1807:D 45.0058 
*END

*D_NET *78 0.00043298
*CONN
*I *1532:B1 I *D sg13cmos5l_o21ai_1
*I *1231:Y O *D sg13cmos5l_inv_1
*CAP
1 *1532:B1 0
2 *1231:Y 0.000125964
3 *78:10 0.000125964
4 *78:10 *675:14 0
5 *1231:A *78:10 0.000181051
6 *52:14 *78:10 0
*RES
1 *1231:Y *78:10 41.6274 
2 *78:10 *1532:B1 40 
*END

*D_NET *79 0.00784403
*CONN
*I *1875:A I *D sg13cmos5l_buf_1
*I *1730:B2 I *D sg13cmos5l_a22oi_1
*I *1725:B1 I *D sg13cmos5l_a21oi_1
*I *1232:Y O *D sg13cmos5l_inv_1
*CAP
1 *1875:A 0.000327853
2 *1730:B2 3.34444e-05
3 *1725:B1 0.000453171
4 *1232:Y 0.000168197
5 *79:10 0.000647408
6 *79:8 0.000656844
7 *1725:B1 *321:39 0.000340374
8 *1725:B1 *362:39 0.00130057
9 *1725:B1 *570:55 0.00023464
10 *1725:B1 *594:16 0
11 *1725:B1 *643:12 0.00130042
12 *1725:B1 *684:20 0.000234628
13 *1730:B2 *1730:A2 4.77425e-05
14 *1875:A *321:31 0.00103414
15 *1875:A *625:32 0.000396084
16 *1875:A *684:124 0
17 *79:8 *314:23 0
18 *79:8 *594:20 0.000143932
19 *79:10 *684:20 0.000372986
20 *79:10 *684:124 7.65602e-05
21 *79:10 *695:131 7.5032e-05
*RES
1 *1232:Y *79:8 41.6171 
2 *79:8 *79:10 2.0806 
3 *79:10 *1725:B1 49.0022 
4 *79:10 *1730:B2 40.3193 
5 *79:8 *1875:A 45.1191 
*END

*D_NET *80 0.0184893
*CONN
*I *1538:B1 I *D sg13cmos5l_a21o_1
*I *1537:A I *D sg13cmos5l_or2_1
*I *1574:A I *D sg13cmos5l_xnor2_1
*I *1625:A0 I *D sg13cmos5l_mux2_1
*I *1637:A I *D sg13cmos5l_nand3_1
*I *1589:A1 I *D sg13cmos5l_a21o_1
*I *1536:A I *D sg13cmos5l_nor2_1
*I *1233:Y O *D sg13cmos5l_inv_1
*CAP
1 *1538:B1 0
2 *1537:A 0.00024624
3 *1574:A 4.32152e-05
4 *1625:A0 0.000137818
5 *1637:A 0.000316821
6 *1589:A1 0.00014952
7 *1536:A 0.000456996
8 *1233:Y 0.00039339
9 *80:84 0.000289455
10 *80:42 0.00129283
11 *80:36 0.0012812
12 *80:32 0.00134855
13 *80:24 0.00133702
14 *80:18 0.000878682
15 *80:8 0.000808754
16 *1536:A *1279:B2 0.000207854
17 *1536:A *1279:C1 0.000264404
18 *1536:A *1576:C 0
19 *1536:A *1645:A 0
20 *1537:A *1537:B 1.54008e-05
21 *1537:A *338:35 0.000344756
22 *1574:A *1574:B 8.0194e-05
23 *1574:A *390:8 8.00842e-05
24 *1589:A1 *1589:A2 8.00842e-05
25 *1589:A1 *1589:B1 1.54008e-05
26 *1589:A1 *1626:B1 4.71556e-05
27 *1589:A1 *1626:A1 0
28 *1625:A0 *1625:A1 0.000121666
29 *1637:A *1626:B2 4.77425e-05
30 *1637:A *1626:C1 0
31 *1637:A *1626:B1 0.000144899
32 *1637:A *392:12 3.23965e-05
33 *1637:A *392:24 8.00842e-05
34 *1637:A *673:49 0
35 *80:8 *1590:A2 0.000258161
36 *80:8 *1906:A 0
37 *80:8 *338:71 0
38 *80:8 *409:12 0
39 *80:8 *654:156 0
40 *80:8 *673:82 0.000110829
41 *80:8 *677:53 0
42 *80:18 *1538:A1 0
43 *80:18 *1590:A2 4.78524e-05
44 *80:18 *338:35 0
45 *80:18 *338:39 0
46 *80:18 *338:65 0
47 *80:18 *573:37 0.000183707
48 *80:18 *573:48 0.000214913
49 *80:18 *677:53 0
50 *80:18 *695:26 0
51 *80:24 *1575:A 0.000182626
52 *80:24 *338:39 0
53 *80:24 *695:26 0
54 *80:32 *1575:A 0.000234416
55 *80:32 *1639:B 0.000128408
56 *80:32 *81:8 0.000874015
57 *80:32 *344:22 0.000183564
58 *80:32 *391:8 0
59 *80:32 *392:12 0.000447193
60 *80:36 *1626:B1 0.000305574
61 *80:36 *339:20 1.54008e-05
62 *80:36 *392:12 0.000111705
63 *80:42 *339:20 0.00215251
64 *80:42 *574:8 8.00842e-05
65 *80:42 *671:22 0.000447597
66 *80:42 *672:62 0
67 *80:42 *695:26 0.000555408
68 *80:42 *695:43 0
69 *80:42 *706:101 0.00114009
70 *80:42 *714:18 0
71 *1933:A *1536:A 0.000272647
*RES
1 *1233:Y *80:8 23.9449 
2 *80:8 *80:18 44.2642 
3 *80:18 *80:24 24.1921 
4 *80:24 *80:32 28.1885 
5 *80:32 *80:36 3.0797 
6 *80:36 *80:42 33.8947 
7 *80:42 *1536:A 44.7792 
8 *80:36 *1589:A1 21.6377 
9 *80:32 *1637:A 23.0488 
10 *80:24 *1625:A0 41.1845 
11 *80:18 *80:84 20 
12 *80:84 *1574:A 40.5356 
13 *80:84 *1537:A 42.472 
14 *80:8 *1538:B1 20 
*END

*D_NET *81 0.00783658
*CONN
*I *1615:A I *D sg13cmos5l_xnor2_1
*I *1619:A1 I *D sg13cmos5l_a22oi_1
*I *1613:A I *D sg13cmos5l_xnor2_1
*I *1234:Y O *D sg13cmos5l_inv_1
*CAP
1 *1615:A 0.000109977
2 *1619:A1 0
3 *1613:A 0
4 *1234:Y 0.000553606
5 *81:42 0.000447806
6 *81:24 0.00037071
7 *81:14 0.000536474
8 *81:8 0.0010572
9 *1615:A *1615:B 1.54008e-05
10 *1615:A *1619:B2 0
11 *1615:A *407:18 1.54556e-05
12 *1615:A *416:12 0
13 *81:8 *1234:A 0
14 *81:8 *1575:A 0.000504436
15 *81:8 *1604:A1 0
16 *81:8 *1625:S 0
17 *81:8 *92:20 0
18 *81:8 *376:12 0.000556852
19 *81:8 *377:14 0
20 *81:8 *391:8 0.0010332
21 *81:14 *1258:A 0
22 *81:14 *1619:B1 4.77425e-05
23 *81:14 *1619:B2 0
24 *81:14 *97:16 3.23417e-05
25 *81:24 *1613:B 8.00842e-05
26 *81:24 *1619:B1 8.00842e-05
27 *81:24 *97:16 8.01938e-05
28 *81:24 *98:20 0
29 *81:24 *313:37 0.000289819
30 *81:42 *1572:B 7.47964e-05
31 *81:42 *98:20 0.000474685
32 *81:42 *312:64 0.000474108
33 *81:42 *572:27 0.000127594
34 *80:32 *81:8 0.000874015
*RES
1 *1234:Y *81:8 49.4966 
2 *81:8 *81:14 21.7201 
3 *81:14 *81:24 43.399 
4 *81:24 *1613:A 20 
5 *81:14 *1619:A1 20 
6 *81:8 *81:42 44.223 
7 *81:42 *1615:A 41.1021 
*END

*D_NET *82 0.00317965
*CONN
*I *1540:A I *D sg13cmos5l_and2_1
*I *1629:B1 I *D sg13cmos5l_a21oi_1
*I *1530:A I *D sg13cmos5l_or2_1
*I *1630:A I *D sg13cmos5l_nand3_1
*I *1235:Y O *D sg13cmos5l_inv_1
*CAP
1 *1540:A 3.73393e-05
2 *1629:B1 0.000239847
3 *1530:A 3.40905e-05
4 *1630:A 0.000101227
5 *1235:Y 0.000349954
6 *82:34 0.000333262
7 *82:21 0.000269862
8 *82:10 0.000280923
9 *82:8 0.000349954
10 *1530:A *585:31 1.85467e-05
11 *1540:A *333:16 0.000128358
12 *1540:A *585:39 0.000182872
13 *1629:B1 *1539:B 0
14 *1629:B1 *1658:A2 0
15 *1629:B1 *332:35 0
16 *1629:B1 *334:16 6.48152e-05
17 *1629:B1 *334:26 1.54008e-05
18 *1629:B1 *428:10 1.54008e-05
19 *1629:B1 *428:36 0
20 *1629:B1 *585:39 0.000129595
21 *1629:B1 *654:10 0
22 *1630:A *1629:A2 0
23 *1630:A *334:26 0.000112558
24 *82:8 *332:24 0.000131027
25 *82:8 *334:26 7.65602e-05
26 *82:8 *378:28 0
27 *82:8 *437:14 0.000180577
28 *82:21 *1629:A2 0
29 *82:21 *93:8 0
30 *82:21 *333:16 8.02379e-05
31 *82:21 *334:26 4.72443e-05
32 *82:21 *585:31 0
33 *82:34 *93:8 0
34 *82:34 *585:31 0
*RES
1 *1235:Y *82:8 43.3166 
2 *82:8 *82:10 20 
3 *82:10 *1630:A 21.1021 
4 *82:10 *82:21 1.6377 
5 *82:21 *1530:A 20.4738 
6 *82:21 *82:34 20.515 
7 *82:34 *1629:B1 42.369 
8 *82:34 *1540:A 40.8446 
*END

*D_NET *83 0.00519722
*CONN
*I *1523:A I *D sg13cmos5l_nor2_1
*I *1670:A I *D sg13cmos5l_nor2_1
*I *1673:A I *D sg13cmos5l_xnor2_1
*I *1236:Y O *D sg13cmos5l_inv_1
*CAP
1 *1523:A 0.000154204
2 *1670:A 6.07681e-05
3 *1673:A 0.000422432
4 *1236:Y 0.00049012
5 *83:16 0.000596014
6 *83:14 0.000757137
7 *1523:A *1866:A 0
8 *1523:A *465:14 0.000372891
9 *1523:A *477:10 0
10 *1523:A *574:22 0.000342462
11 *1523:A *576:48 0.000112601
12 *1670:A *630:50 0.000112558
13 *1670:A *649:79 0.000112426
14 *1673:A *1675:A2 0
15 *1673:A *381:12 1.54556e-05
16 *1673:A *381:21 0.000240739
17 *1673:A *450:14 0
18 *1673:A *465:14 0.000719775
19 *1673:A *654:115 2.25909e-05
20 *1673:A *695:87 0
21 *1673:A *706:77 0
22 *83:14 *1523:B 0
23 *83:14 *1549:A 0
24 *83:14 *1628:B 4.77425e-05
25 *83:14 *1653:A 0
26 *83:14 *1653:B 4.77425e-05
27 *83:14 *450:14 0
28 *83:14 *477:10 0
29 *83:14 *544:43 0
30 *83:14 *574:22 4.79124e-05
31 *83:14 *648:95 0
32 *83:14 *653:10 1.54008e-05
33 *83:16 *450:14 0
34 *83:16 *465:14 0.000376569
35 *83:16 *654:115 0.000129679
*RES
1 *1236:Y *83:14 44.7118 
2 *83:14 *83:16 1.8334 
3 *83:16 *1673:A 44.9337 
4 *83:16 *1670:A 40.7519 
5 *83:14 *1523:A 42.5853 
*END

*D_NET *84 0.00598222
*CONN
*I *1712:A I *D sg13cmos5l_nor2_1
*I *1720:A1 I *D sg13cmos5l_o21ai_1
*I *1597:A I *D sg13cmos5l_and3_1
*I *1721:A1 I *D sg13cmos5l_a22oi_1
*I *1237:Y O *D sg13cmos5l_inv_1
*CAP
1 *1712:A 0.000178702
2 *1720:A1 0.000328395
3 *1597:A 8.40528e-05
4 *1721:A1 4.41704e-05
5 *1237:Y 0.000768846
6 *84:14 0.00023026
7 *84:10 0.00102058
8 *1597:A *1560:B 3.1668e-05
9 *1597:A *1721:B1 0
10 *1597:A *1722:B1 0
11 *1597:A *311:73 0
12 *1712:A *1237:A 7.96143e-05
13 *1712:A *1724:B1 0
14 *1712:A *706:36 0
15 *1712:A *706:48 0
16 *1720:A1 *1597:C 4.69735e-05
17 *1720:A1 *1720:A2 0.000434087
18 *1720:A1 *311:100 0.000369222
19 *1720:A1 *399:24 7.65627e-05
20 *1720:A1 *400:14 0.00016053
21 *1721:A1 *1560:B 0
22 *1721:A1 *1722:B1 0
23 *84:10 *1713:A 0.000288588
24 *84:10 *1721:B2 7.52149e-05
25 *84:10 *1722:A1 0
26 *84:10 *1724:A1 0
27 *84:10 *400:14 0.00012816
28 *84:10 *511:10 0.000342315
29 *84:10 *570:39 0.000318935
30 *84:10 *594:44 0.000159096
31 *84:10 *632:14 0.000236057
32 *84:10 *632:29 0.000500248
33 *84:10 *643:12 0
34 *84:10 *706:48 0
35 *84:14 *594:16 7.9947e-05
36 *1822:D *1712:A 0
*RES
1 *1237:Y *84:10 48.0237 
2 *84:10 *84:14 20.8714 
3 *84:14 *1721:A1 20.3502 
4 *84:14 *1597:A 20.9939 
5 *84:10 *1720:A1 43.9758 
6 *1237:Y *1712:A 41.4008 
*END

*D_NET *85 0.0051736
*CONN
*I *1612:A1 I *D sg13cmos5l_a22oi_1
*I *1533:A I *D sg13cmos5l_nor3_1
*I *1238:Y O *D sg13cmos5l_inv_1
*CAP
1 *1612:A1 0
2 *1533:A 5.19796e-05
3 *1238:Y 0.000383635
4 *85:20 0.000107068
5 *85:16 0.0006746
6 *85:8 0.00100315
7 *1533:A *306:14 0
8 *85:8 *258:74 0
9 *85:8 *337:10 0.00109014
10 *85:8 *372:147 0.000671083
11 *85:8 *416:34 0.000129383
12 *85:8 *672:22 2.21819e-05
13 *85:16 *86:22 0.000519865
14 *85:16 *302:18 0.000472713
15 *85:16 *561:62 0
16 *85:16 *571:16 0
17 *85:16 *586:18 0
18 *85:20 *306:14 4.78028e-05
19 *57:10 *85:20 0
*RES
1 *1238:Y *85:8 46.0358 
2 *85:8 *85:16 46.386 
3 *85:16 *85:20 20.5356 
4 *85:20 *1533:A 20.5974 
5 *85:20 *1612:A1 20 
*END

*D_NET *86 0.00707563
*CONN
*I *1535:B I *D sg13cmos5l_or4_1
*I *1564:A1 I *D sg13cmos5l_a21oi_1
*I *1533:B I *D sg13cmos5l_nor3_1
*I *1239:Y O *D sg13cmos5l_inv_1
*CAP
1 *1535:B 4.90447e-05
2 *1564:A1 8.84884e-05
3 *1533:B 3.69301e-05
4 *1239:Y 0.000705931
5 *86:22 0.000315874
6 *86:14 0.000563109
7 *86:8 0.000950653
8 *1533:B *1497:B1 0
9 *1533:B *163:97 4.62024e-05
10 *1533:B *635:88 1.3872e-05
11 *1535:B *1535:A 1.54008e-05
12 *1535:B *202:16 6.39133e-05
13 *1535:B *202:23 1.61708e-05
14 *1564:A1 *1564:A2 1.54008e-05
15 *86:8 *305:28 0.0020207
16 *86:8 *337:28 0.000181854
17 *86:8 *547:15 0
18 *86:8 *660:62 0
19 *86:8 *660:73 0
20 *86:8 *675:14 0
21 *86:14 *204:8 0.000182045
22 *86:14 *305:28 0.000181226
23 *86:14 *337:28 0.00023614
24 *86:14 *612:35 0.000396272
25 *86:22 *561:62 0.000476539
26 *86:22 *571:16 0
27 *86:22 *586:18 0
28 *85:16 *86:22 0.000519865
*RES
1 *1239:Y *86:8 49.4966 
2 *86:8 *86:14 3.2445 
3 *86:14 *86:22 43.4788 
4 *86:22 *1533:B 40.4146 
5 *86:14 *1564:A1 40.7519 
6 *86:8 *1535:B 40.5356 
*END

*D_NET *87 0.00419815
*CONN
*I *1391:B2 I *D sg13cmos5l_a22oi_1
*I *1432:A1 I *D sg13cmos5l_a21oi_1
*I *1430:A1 I *D sg13cmos5l_o21ai_1
*I *1240:Y O *D sg13cmos5l_inv_1
*CAP
1 *1391:B2 9.00933e-05
2 *1432:A1 0
3 *1430:A1 0.000201546
4 *1240:Y 0
5 *87:16 0.000722865
6 *87:6 0.000611412
7 *1391:B2 *1398:A2 4.77425e-05
8 *1391:B2 *189:8 0.000212456
9 *1391:B2 *661:104 0.00023464
10 *1430:A1 *1430:A2 0.00033743
11 *1430:A1 *160:77 0
12 *1430:A1 *193:48 0.00017634
13 *1430:A1 *241:10 4.77425e-05
14 *87:16 *1417:B1 8.00842e-05
15 *87:16 *1430:A2 1.54008e-05
16 *87:16 *1431:A 4.77425e-05
17 *87:16 *1432:B1 4.73096e-05
18 *87:16 *174:85 0
19 *87:16 *189:8 0.000128248
20 *87:16 *194:8 0
21 *87:16 *241:10 3.23417e-05
22 *87:16 *638:45 0.000396255
23 *87:16 *661:104 0.000768503
24 *87:16 *666:32 0
*RES
1 *1240:Y *87:6 40 
2 *87:6 *87:16 26.4993 
3 *87:16 *1430:A1 22.266 
4 *87:16 *1432:A1 20 
5 *87:6 *1391:B2 41.5192 
*END

*D_NET *88 0.00346531
*CONN
*I *1466:A I *D sg13cmos5l_nand2_1
*I *1391:A1 I *D sg13cmos5l_a22oi_1
*I *1241:Y O *D sg13cmos5l_inv_1
*CAP
1 *1466:A 0.000165857
2 *1391:A1 0.000296167
3 *1241:Y 0.000443678
4 *88:8 0.000905702
5 *1391:A1 *1467:A1 8.00842e-05
6 *1391:A1 *1468:B1 0.000287256
7 *1391:A1 *188:37 0.000871535
8 *1391:A1 *274:16 4.78521e-05
9 *1391:A1 *735:33 0
10 *1391:A1 *735:35 0
11 *1466:A *1451:B 0
12 *1466:A *188:37 0.000319377
13 *1466:A *231:75 0
14 *1466:A *275:10 4.7803e-05
*RES
1 *1241:Y *88:8 43.5638 
2 *88:8 *1391:A1 44.5938 
3 *88:8 *1466:A 42.1218 
*END

*D_NET *89 0.00559088
*CONN
*I *1316:A I *D sg13cmos5l_nor2_1
*I *1387:B1 I *D sg13cmos5l_a21oi_1
*I *1242:Y O *D sg13cmos5l_inv_1
*CAP
1 *1316:A 0
2 *1387:B1 8.46734e-05
3 *1242:Y 0.000180607
4 *89:29 0.00148188
5 *89:10 0.00174717
6 *1387:B1 *1387:A1 0.000112441
7 *89:10 *136:46 0
8 *89:10 *598:22 0.00017644
9 *89:10 *659:14 0
10 *89:10 *688:37 0
11 *89:29 *1316:B 0
12 *89:29 *1963:A 7.93167e-05
13 *89:29 *135:10 0.000131027
14 *89:29 *137:62 0.000446597
15 *89:29 *192:20 0.000128186
16 *89:29 *651:22 0.000379575
17 *89:29 *680:43 0.000642967
18 *89:29 *688:37 0
*RES
1 *1242:Y *89:10 41.9055 
2 *89:10 *1387:B1 40.7519 
3 *89:10 *89:29 34.2243 
4 *89:29 *1316:A 20 
*END

*D_NET *90 0.00591315
*CONN
*I *1316:B I *D sg13cmos5l_nor2_1
*I *1387:A1 I *D sg13cmos5l_a21oi_1
*I *1243:Y O *D sg13cmos5l_inv_1
*CAP
1 *1316:B 0.000599219
2 *1387:A1 0.000169708
3 *1243:Y 0.000251654
4 *90:37 0.000986985
5 *90:18 0.000302909
6 *90:12 0.00077262
7 *1316:B *137:8 0.000919906
8 *1316:B *680:43 0.00030581
9 *1387:A1 *1387:A2 0
10 *1387:A1 *192:20 0.000143369
11 *90:12 *191:20 0
12 *90:12 *678:69 0
13 *90:18 *182:34 0
14 *90:18 *188:62 0
15 *90:18 *598:14 0
16 *90:37 *134:8 0.000823238
17 *90:37 *188:62 0
18 *90:37 *191:20 0
19 *90:37 *678:69 0
20 *90:37 *728:10 0.000395682
21 *1387:B1 *1387:A1 0.000112441
22 *25:16 *90:12 0.000129604
23 *89:29 *1316:B 0
*RES
1 *1243:Y *90:12 42.2557 
2 *90:12 *90:18 41.4008 
3 *90:18 *1387:A1 41.751 
4 *90:12 *90:37 45.2736 
5 *90:37 *1316:B 46.1594 
*END

*D_NET *91 0.000893091
*CONN
*I *1514:B1 I *D sg13cmos5l_a21oi_1
*I *1244:Y O *D sg13cmos5l_inv_1
*CAP
1 *1514:B1 4.08322e-05
2 *1244:Y 0.000207645
3 *91:8 0.000248477
4 *91:8 *1244:A 0.000396138
5 *91:8 *310:22 0
*RES
1 *1244:Y *91:8 42.0806 
2 *91:8 *1514:B1 40.3193 
*END

*D_NET *92 0.0026243
*CONN
*I *1264:A_N I *D sg13cmos5l_nand2b_1
*I *1265:B1 I *D sg13cmos5l_a21oi_1
*I *1258:X O *D sg13cmos5l_and2_1
*CAP
1 *1264:A_N 0.000113834
2 *1265:B1 0
3 *1258:X 3.11899e-05
4 *92:20 0.000472172
5 *92:8 0.000617196
6 *1264:A_N *97:35 1.54008e-05
7 *1264:A_N *312:51 0.000127797
8 *1264:A_N *335:10 0.000159643
9 *92:8 *335:10 7.68089e-05
10 *92:20 *572:37 0.000191149
11 *92:20 *611:18 8.09323e-05
12 *92:20 *635:57 0.000309043
13 *92:20 *672:24 0.000429134
14 *81:8 *92:20 0
*RES
1 *1258:X *92:8 40.3502 
2 *92:8 *92:20 45.2633 
3 *92:20 *1265:B1 40 
4 *92:8 *1264:A_N 41.5141 
*END

*D_NET *93 0.0100997
*CONN
*I *1262:B1 I *D sg13cmos5l_o21ai_1
*I *1259:Y O *D sg13cmos5l_nand2_1
*CAP
1 *1262:B1 0
2 *1259:Y 0.000363008
3 *93:24 0.00165967
4 *93:14 0.00226762
5 *93:8 0.00097096
6 *93:8 *1259:A 0
7 *93:8 *333:16 8.02379e-05
8 *93:8 *334:26 7.96627e-05
9 *93:8 *340:26 0.00014413
10 *93:8 *612:53 0.000111694
11 *93:14 *340:18 0.000768424
12 *93:14 *699:12 0
13 *93:24 *1262:A2 0.000112689
14 *93:24 *1265:A1 0.000233942
15 *93:24 *1619:B2 0
16 *93:24 *1652:A2 0
17 *93:24 *94:16 0
18 *93:24 *96:10 0.000322934
19 *93:24 *336:20 0
20 *93:24 *339:30 0
21 *93:24 *340:18 0
22 *93:24 *426:10 0
23 *93:24 *561:10 0.000394566
24 *93:24 *573:10 0
25 *93:24 *672:94 0.000236032
26 *93:24 *695:26 0
27 *93:24 *695:43 0.0005003
28 *93:24 *699:8 0.000712976
29 *93:24 *746:8 0.00114087
30 *1813:D *93:24 0
31 *82:21 *93:8 0
32 *82:34 *93:8 0
*RES
1 *1259:Y *93:8 43.3475 
2 *93:8 *93:14 45.9431 
3 *93:14 *93:24 39.0447 
4 *93:24 *1262:B1 20 
*END

*D_NET *94 0.0127299
*CONN
*I *1310:A I *D sg13cmos5l_xor2_1
*I *1262:A1 I *D sg13cmos5l_o21ai_1
*I *1260:Y O *D sg13cmos5l_nand2_1
*CAP
1 *1310:A 0.000997478
2 *1262:A1 3.57257e-05
3 *1260:Y 0
4 *94:16 0.00153245
5 *94:12 0.00133881
6 *94:6 0.000839565
7 *1262:A1 *1262:A2 1.54449e-05
8 *1262:A1 *689:24 0
9 *1310:A *1261:A 2.21831e-05
10 *1310:A *1612:A2 0
11 *1310:A *572:12 0
12 *1310:A *655:42 0.000596389
13 *1310:A *714:18 0.000182524
14 *94:12 *1766:CLK 0.000234224
15 *94:12 *99:12 0.000273299
16 *94:12 *561:20 0.00199441
17 *94:12 *561:22 0.000662302
18 *94:12 *561:49 0.000556566
19 *94:12 *672:32 0.00103593
20 *94:12 *689:24 0
21 *94:16 *96:10 0
22 *94:16 *336:20 0
23 *94:16 *573:10 0.000129595
24 *94:16 *672:94 0.000129186
25 *94:16 *714:18 0
26 *36:10 *1310:A 0
27 *59:14 *94:12 0.00215384
28 *93:24 *94:16 0
*RES
1 *1260:Y *94:6 40 
2 *94:6 *94:12 37.51 
3 *94:12 *94:16 24.3054 
4 *94:16 *1262:A1 40.3193 
5 *94:16 *1310:A 49.1155 
*END

*D_NET *95 0.00412923
*CONN
*I *1988:A I *D sg13cmos5l_dlygate4sd3_1
*I *1262:A2 I *D sg13cmos5l_o21ai_1
*I *1261:Y O *D sg13cmos5l_xnor2_1
*CAP
1 *1988:A 9.14732e-05
2 *1262:A2 0.000415263
3 *1261:Y 0.000367329
4 *95:10 0.000874066
5 *1262:A2 *1613:B 4.70638e-05
6 *1262:A2 *313:37 0.000714563
7 *1262:A2 *336:10 0.000500215
8 *1262:A2 *336:20 7.51285e-05
9 *1262:A2 *689:14 1.56704e-05
10 *1262:A2 *689:18 0
11 *1988:A *572:12 0
12 *95:10 *689:14 0.000450258
13 *95:10 *741:8 0
14 *1262:A1 *1262:A2 1.54449e-05
15 *1965:A *95:10 0
16 *36:10 *95:10 0
17 *40:10 *1262:A2 0
18 *40:10 *95:10 0.000450066
19 *93:24 *1262:A2 0.000112689
*RES
1 *1261:Y *95:10 44.8719 
2 *95:10 *1262:A2 45.5929 
3 *95:10 *1988:A 40.7519 
*END

*D_NET *96 0.00317699
*CONN
*I *1762:A I *D sg13cmos5l_xnor2_1
*I *1265:A1 I *D sg13cmos5l_a21oi_1
*I *1262:Y O *D sg13cmos5l_o21ai_1
*CAP
1 *1762:A 4.37077e-05
2 *1265:A1 0.000411275
3 *1262:Y 0.000119301
4 *96:10 0.000574284
5 *1265:A1 *1263:A 0
6 *1265:A1 *97:16 0.000241799
7 *1265:A1 *99:12 0.000435859
8 *1265:A1 *336:20 0.000235656
9 *1265:A1 *340:8 0
10 *1762:A *1762:B 8.00842e-05
11 *1762:A *97:16 8.00842e-05
12 *96:10 *336:20 0.000398063
13 *93:24 *1265:A1 0.000233942
14 *93:24 *96:10 0.000322934
15 *94:16 *96:10 0
*RES
1 *1262:Y *96:10 42.369 
2 *96:10 *1265:A1 45.0058 
3 *96:10 *1762:A 40.5356 
*END

*D_NET *97 0.00422275
*CONN
*I *1264:B I *D sg13cmos5l_nand2b_1
*I *1265:A2 I *D sg13cmos5l_a21oi_1
*I *1263:X O *D sg13cmos5l_or2_1
*CAP
1 *1264:B 0
2 *1265:A2 0
3 *1263:X 0.000788016
4 *97:35 0.000482007
5 *97:16 0.00127002
6 *97:16 *1258:A 8.03475e-05
7 *97:16 *1263:A 0
8 *97:16 *1619:B1 0
9 *97:35 *1258:A 0.0003756
10 *97:35 *1258:B 0.00024134
11 *97:35 *340:8 0
12 *97:35 *404:10 0.00023869
13 *97:35 *416:12 0.000111658
14 *97:35 *635:57 0.000185245
15 *1264:A_N *97:35 1.54008e-05
16 *1265:A1 *97:16 0.000241799
17 *1762:A *97:16 8.00842e-05
18 *1765:D *97:16 0
19 *81:14 *97:16 3.23417e-05
20 *81:24 *97:16 8.01938e-05
*RES
1 *1263:X *97:16 27.5087 
2 *97:16 *1265:A2 20 
3 *97:16 *97:35 45.6444 
4 *97:35 *1264:B 20 
*END

*D_NET *98 0.00387891
*CONN
*I *1762:B I *D sg13cmos5l_xnor2_1
*I *1264:Y O *D sg13cmos5l_nand2b_1
*CAP
1 *1762:B 9.2058e-05
2 *1264:Y 0.000140724
3 *98:20 0.000882342
4 *98:12 0.000931008
5 *1762:B *1263:A 0.000144735
6 *98:12 *1618:B1 0.000128597
7 *98:12 *416:12 1.54008e-05
8 *98:12 *612:35 0.000230207
9 *98:12 *637:151 0.000232679
10 *98:20 *312:64 0
11 *98:20 *313:37 7.5299e-05
12 *98:20 *336:20 0.000451095
13 *98:20 *586:18 0
14 *98:20 *586:22 0
15 *1762:A *1762:B 8.00842e-05
16 *81:24 *98:20 0
17 *81:42 *98:20 0.000474685
*RES
1 *1264:Y *98:12 42.0549 
2 *98:12 *98:20 48.6726 
3 *98:20 *1762:B 40.9682 
*END

*D_NET *99 0.0152394
*CONN
*I *1268:A I *D sg13cmos5l_xor2_1
*I *1269:A1 I *D sg13cmos5l_o21ai_1
*I *1265:Y O *D sg13cmos5l_a21oi_1
*CAP
1 *1268:A 0.000448474
2 *1269:A1 5.43801e-05
3 *1265:Y 0.000657895
4 *99:22 0.000876664
5 *99:18 0.0030498
6 *99:12 0.00243694
7 *1268:A *1268:B 0.000369695
8 *1268:A *104:25 0
9 *1269:A1 *101:12 8.02379e-05
10 *99:12 *340:8 0
11 *99:12 *573:10 0.000177032
12 *99:18 *1272:A 4.77425e-05
13 *99:18 *1279:B1 0
14 *99:18 *655:58 0.00352044
15 *99:22 *102:8 0
16 *99:22 *104:14 0
17 *99:22 *440:16 0.00215246
18 *99:22 *640:8 0.000658515
19 *99:22 *669:64 0
20 *1265:A1 *99:12 0.000435859
21 *6:9 *99:18 0
22 *94:12 *99:12 0.000273299
*RES
1 *1265:Y *99:12 46.6126 
2 *99:12 *99:18 44.5243 
3 *99:18 *99:22 31.4742 
4 *99:22 *1269:A1 40.5356 
5 *99:18 *1268:A 24.1612 
*END

*D_NET *100 0.0032923
*CONN
*I *1269:B1 I *D sg13cmos5l_o21ai_1
*I *1266:Y O *D sg13cmos5l_nand2_1
*CAP
1 *1269:B1 0.000615245
2 *1266:Y 0.000532207
3 *100:10 0.00114745
4 *1269:B1 *1271:B 0
5 *1269:B1 *101:12 0.000242181
6 *1269:B1 *104:10 0
7 *1269:B1 *432:14 0
8 *100:10 *603:22 0.000208747
9 *100:10 *653:32 0.000130532
10 *100:10 *654:88 0.000176274
11 *100:10 *669:10 4.77425e-05
12 *100:10 *671:34 0.000144181
13 *100:10 *671:47 4.77425e-05
*RES
1 *1266:Y *100:10 44.2848 
2 *100:10 *1269:B1 45.7783 
*END

*D_NET *101 0.00550266
*CONN
*I *1268:B I *D sg13cmos5l_xor2_1
*I *1269:A2 I *D sg13cmos5l_o21ai_1
*I *1267:Y O *D sg13cmos5l_xnor2_1
*CAP
1 *1268:B 0.000359078
2 *1269:A2 0
3 *1267:Y 0
4 *101:12 0.00124563
5 *101:6 0.0016047
6 *1268:B *671:22 0
7 *1268:B *672:62 0.000267945
8 *101:12 *104:10 8.00279e-05
9 *101:12 *104:14 0
10 *101:12 *671:22 0
11 *101:12 *672:62 0.00125317
12 *101:12 *727:16 0
13 *1268:A *1268:B 0.000369695
14 *1269:B1 *101:12 0.000242181
15 *1269:A1 *101:12 8.02379e-05
16 *1933:A *1268:B 0
*RES
1 *1267:Y *101:6 40 
2 *101:6 *101:12 32.3497 
3 *101:12 *1269:A2 20 
4 *101:6 *1268:B 43.8213 
*END

*D_NET *102 0.00904733
*CONN
*I *1279:B1 I *D sg13cmos5l_a221oi_1
*I *1272:A I *D sg13cmos5l_xor2_1
*I *1273:A1 I *D sg13cmos5l_a21oi_1
*I *1269:Y O *D sg13cmos5l_o21ai_1
*CAP
1 *1279:B1 0.000807299
2 *1272:A 2.98749e-05
3 *1273:A1 0
4 *1269:Y 0.000806142
5 *102:25 0.00100969
6 *102:16 0.000855737
7 *102:8 0.0018344
8 *1279:B1 *1279:A1 0.000111839
9 *1279:B1 *1279:A2 0
10 *1279:B1 *1766:D 0
11 *1279:B1 *110:14 8.00842e-05
12 *1279:B1 *339:14 0
13 *1279:B1 *440:16 0
14 *1279:B1 *669:64 0.000395482
15 *1279:B1 *681:8 0
16 *102:8 *640:8 0
17 *102:8 *652:14 0
18 *102:8 *669:64 7.52149e-05
19 *102:16 *1768:RESET_B 4.77537e-05
20 *102:16 *1917:A 8.00842e-05
21 *102:16 *105:8 0
22 *102:16 *379:24 0
23 *102:16 *669:56 0.000563631
24 *102:16 *669:58 0.000337353
25 *102:16 *719:12 0.000231678
26 *102:25 *669:64 0.000608354
27 *1933:A *1279:B1 0.00014448
28 *5:8 *102:8 0.000980493
29 *99:18 *1272:A 4.77425e-05
30 *99:18 *1279:B1 0
31 *99:22 *102:8 0
*RES
1 *1269:Y *102:8 49.2494 
2 *102:8 *102:16 47.9619 
3 *102:16 *1273:A1 40 
4 *102:8 *102:25 2.8222 
5 *102:25 *1272:A 40.3193 
6 *102:25 *1279:B1 47.9825 
*END

*D_NET *103 0.00511916
*CONN
*I *1279:C1 I *D sg13cmos5l_a221oi_1
*I *1273:B1 I *D sg13cmos5l_a21oi_1
*I *1270:X O *D sg13cmos5l_and2_1
*CAP
1 *1279:C1 0.000181584
2 *1273:B1 0.00011549
3 *1270:X 0.000540351
4 *103:29 0.000352026
5 *103:10 0.000826283
6 *1273:B1 *444:10 0.00039332
7 *1273:B1 *654:28 0.000106064
8 *1273:B1 *654:34 0.000282382
9 *1279:C1 *1279:B2 6.54534e-06
10 *103:10 *338:90 0.000392705
11 *103:10 *372:78 0.000176405
12 *103:10 *431:10 0.000287624
13 *103:10 *434:8 0.00028792
14 *103:10 *443:8 0
15 *103:10 *444:10 0.000371639
16 *103:10 *585:31 0.000176405
17 *103:10 *608:28 0
18 *103:10 *654:28 0.00018211
19 *103:10 *695:66 0
20 *103:29 *1645:A 0
21 *103:29 *1645:B 4.77425e-05
22 *103:29 *443:8 0.00012816
23 *103:29 *653:60 0
24 *1536:A *1279:C1 0.000264404
*RES
1 *1270:X *103:10 47.2203 
2 *103:10 *1273:B1 42.1527 
3 *103:10 *103:29 41.5965 
4 *103:29 *1279:C1 41.7742 
*END

*D_NET *104 0.00931624
*CONN
*I *1279:B2 I *D sg13cmos5l_a221oi_1
*I *1273:A2 I *D sg13cmos5l_a21oi_1
*I *1272:B I *D sg13cmos5l_xor2_1
*I *1271:X O *D sg13cmos5l_xor2_1
*CAP
1 *1279:B2 0.000327991
2 *1273:A2 0.000561251
3 *1272:B 0.000118013
4 *1271:X 0.000196985
5 *104:25 0.00102814
6 *104:14 0.000926593
7 *104:10 0.000866672
8 *1273:A2 *433:18 0
9 *1273:A2 *603:14 0.000181694
10 *1273:A2 *706:114 7.52149e-05
11 *1273:A2 *719:12 0
12 *1279:B2 *110:14 4.77425e-05
13 *1279:B2 *603:8 0.000447271
14 *1279:B2 *603:14 0.000159183
15 *1279:B2 *706:114 0.000606279
16 *104:14 *617:16 0.00194056
17 *104:14 *672:62 0.00120087
18 *104:25 *719:12 0
19 *1268:A *104:25 0
20 *1269:B1 *104:10 0
21 *1279:C1 *1279:B2 6.54534e-06
22 *1536:A *1279:B2 0.000207854
23 *1767:D *1272:B 0.00017634
24 *1767:D *1273:A2 0
25 *1767:D *104:25 0.000161013
26 *99:22 *104:14 0
27 *101:12 *104:10 8.00279e-05
28 *101:12 *104:14 0
*RES
1 *1271:X *104:10 41.751 
2 *104:10 *104:14 30.2382 
3 *104:14 *1272:B 21.1845 
4 *104:14 *104:25 21.4008 
5 *104:25 *1273:A2 45.1809 
6 *104:25 *1279:B2 44.8925 
*END

*D_NET *105 0.00162354
*CONN
*I *1276:A I *D sg13cmos5l_xnor2_1
*I *1273:Y O *D sg13cmos5l_a21oi_1
*CAP
1 *1276:A 0.000117482
2 *1273:Y 0.000485636
3 *105:8 0.000603118
4 *1276:A *1276:B 0.000208615
5 *1276:A *560:18 0.000208692
6 *105:8 *444:10 0
7 *105:8 *669:30 0
8 *105:8 *669:54 0
9 *102:16 *105:8 0
*RES
1 *1273:Y *105:8 43.811 
2 *105:8 *1276:A 41.4008 
*END

*D_NET *106 0.00849982
*CONN
*I *1280:A I *D sg13cmos5l_nor3_1
*I *1281:A1 I *D sg13cmos5l_o21ai_1
*I *1274:Y O *D sg13cmos5l_nor2_1
*CAP
1 *1280:A 0
2 *1281:A1 0.000161146
3 *1274:Y 0.00029004
4 *106:33 0.000548254
5 *106:25 0.00157732
6 *106:8 0.00148025
7 *1281:A1 *1281:A2 0.000209506
8 *1281:A1 *110:18 0.00012816
9 *1281:A1 *610:20 0.000144877
10 *106:8 *1278:A 0
11 *106:8 *610:20 0.000209085
12 *106:8 *654:88 0
13 *106:25 *1770:CLK 0.000112618
14 *106:25 *1818:RESET_B 0
15 *106:25 *110:18 0.00173143
16 *106:25 *560:14 0.000274397
17 *106:25 *560:18 0.000144742
18 *106:25 *610:20 0
19 *106:25 *610:35 0
20 *106:25 *669:36 0
21 *106:33 *1280:B 0
22 *106:33 *109:31 0.00124607
23 *106:33 *342:12 0.000241924
24 *62:16 *106:33 0
*RES
1 *1274:Y *106:8 42.6986 
2 *106:8 *1281:A1 41.9982 
3 *106:8 *106:25 31.3609 
4 *106:25 *106:33 47.4057 
5 *106:33 *1280:A 20 
*END

*D_NET *107 0.00356612
*CONN
*I *1917:A I *D sg13cmos5l_dlygate4sd3_1
*I *1275:X O *D sg13cmos5l_xor2_1
*CAP
1 *1917:A 4.37077e-05
2 *1275:X 0.000996942
3 *107:8 0.00104065
4 *1917:A *719:12 8.00842e-05
5 *107:8 *1279:A1 0.000611948
6 *107:8 *432:14 0.000712706
7 *107:8 *727:16 0
8 *102:16 *1917:A 8.00842e-05
*RES
1 *1275:X *107:8 49.0022 
2 *107:8 *1917:A 40.5356 
*END

*D_NET *108 0.00185518
*CONN
*I *1285:A I *D sg13cmos5l_nor3_1
*I *1286:A1 I *D sg13cmos5l_o21ai_1
*I *1277:X O *D sg13cmos5l_and2_1
*CAP
1 *1285:A 0
2 *1286:A1 0.000287385
3 *1277:X 0.000431983
4 *108:10 0.000719368
5 *1286:A1 *1285:B 4.78521e-05
6 *1286:A1 *1285:C 0.000128618
7 *1286:A1 *1286:B1 0
8 *1286:A1 *1286:A2 0.000144146
9 *1286:A1 *119:14 8.03692e-05
10 *108:10 *1278:A 1.54556e-05
11 *108:10 *1282:A 0
12 *108:10 *1287:A 0
13 *108:10 *109:31 0
14 *108:10 *114:8 0
*RES
1 *1277:X *108:10 24.2298 
2 *108:10 *1286:A1 23.3784 
3 *108:10 *1285:A 20 
*END

*D_NET *109 0.00725751
*CONN
*I *1280:B I *D sg13cmos5l_nor3_1
*I *1281:B1 I *D sg13cmos5l_o21ai_1
*I *1278:Y O *D sg13cmos5l_xnor2_1
*CAP
1 *1280:B 0.000211238
2 *1281:B1 0
3 *1278:Y 0.000132327
4 *109:31 0.00185899
5 *109:16 0.000295337
6 *109:8 0.00207542
7 *1280:B *1280:C 0
8 *109:8 *1278:B 0
9 *109:16 *1281:A2 0.000112558
10 *109:16 *1282:B_N 0.000112651
11 *109:16 *610:20 0.000446767
12 *109:31 *1278:A 0
13 *109:31 *1284:A 0.000233942
14 *109:31 *560:8 0
15 *109:31 *560:12 0
16 *109:31 *616:10 0.00053221
17 *109:31 *620:10 0
18 *109:31 *649:36 0
19 *109:31 *652:20 0
20 *109:31 *750:8 0
21 *62:16 *109:31 0
22 *106:33 *1280:B 0
23 *106:33 *109:31 0.00124607
24 *108:10 *109:31 0
*RES
1 *1278:Y *109:8 20.8858 
2 *109:8 *109:16 43.5741 
3 *109:16 *1281:B1 20 
4 *109:8 *109:31 36.4491 
5 *109:31 *1280:B 41.8334 
*END

*D_NET *110 0.00854204
*CONN
*I *1280:C I *D sg13cmos5l_nor3_1
*I *1281:A2 I *D sg13cmos5l_o21ai_1
*I *1279:Y O *D sg13cmos5l_a221oi_1
*CAP
1 *1280:C 0.000539517
2 *1281:A2 0.000152557
3 *1279:Y 0.000783497
4 *110:18 0.0017057
5 *110:14 0.00287616
6 *1280:C *1661:B1 4.77425e-05
7 *1280:C *1664:A1 0
8 *1280:C *1674:A1 0
9 *1280:C *342:12 0
10 *1280:C *458:10 0
11 *1280:C *633:8 0
12 *1281:A2 *1282:B_N 0
13 *110:14 *1536:B 8.00842e-05
14 *110:14 *1644:B1 0
15 *110:14 *1646:B1 4.72942e-05
16 *110:14 *1661:A1 0
17 *110:14 *654:22 0
18 *110:14 *654:28 0
19 *110:18 *1539:B 0
20 *110:18 *610:35 0
21 *110:18 *633:12 0
22 *110:18 *649:14 0
23 *1279:B2 *110:14 4.77425e-05
24 *1279:B1 *110:14 8.00842e-05
25 *1280:B *1280:C 0
26 *1281:A1 *1281:A2 0.000209506
27 *1281:A1 *110:18 0.00012816
28 *45:8 *110:18 0
29 *106:25 *110:18 0.00173143
30 *109:16 *1281:A2 0.000112558
*RES
1 *1279:Y *110:14 26.7527 
2 *110:14 *110:18 35.6766 
3 *110:18 *1281:A2 41.6171 
4 *110:14 *1280:C 25.2427 
*END

*D_NET *111 0.00711055
*CONN
*I *1286:A2 I *D sg13cmos5l_o21ai_1
*I *1285:B I *D sg13cmos5l_nor3_1
*I *1282:A I *D sg13cmos5l_nor2b_1
*I *1280:Y O *D sg13cmos5l_nor3_1
*CAP
1 *1286:A2 0.000195595
2 *1285:B 2.5074e-05
3 *1282:A 0.000572638
4 *1280:Y 0
5 *111:14 0.000617299
6 *111:12 0.0011536
7 *111:6 0.000938418
8 *1282:A *1278:A 0
9 *1282:A *1282:B_N 0
10 *1282:A *1287:B_N 1.54556e-05
11 *1282:A *114:8 0.00037214
12 *1285:B *1285:C 4.78521e-05
13 *1286:A2 *1286:B1 0.000145056
14 *1286:A2 *116:17 0
15 *111:12 *113:22 0
16 *111:12 *381:8 0.000181695
17 *111:12 *461:8 0.00183182
18 *111:12 *652:20 0
19 *111:12 *717:30 0
20 *111:12 *751:10 0
21 *1286:A1 *1285:B 4.78521e-05
22 *1286:A1 *1286:A2 0.000144146
23 *46:8 *1282:A 0
24 *46:8 *111:12 0
25 *63:8 *111:12 0.000821899
26 *108:10 *1282:A 0
*RES
1 *1280:Y *111:6 40 
2 *111:6 *111:12 13.3797 
3 *111:12 *111:14 0.3193 
4 *111:14 *1282:A 46.3551 
5 *111:14 *1285:B 40.3193 
6 *111:12 *1286:A2 42.5956 
*END

*D_NET *112 0.000671787
*CONN
*I *1282:B_N I *D sg13cmos5l_nor2b_1
*I *1281:Y O *D sg13cmos5l_o21ai_1
*CAP
1 *1282:B_N 0.000279568
2 *1281:Y 0.000279568
3 *1282:B_N *1278:A 0
4 *1281:A2 *1282:B_N 0
5 *1282:A *1282:B_N 0
6 *109:16 *1282:B_N 0.000112651
*RES
1 *1281:Y *1282:B_N 43.1106 
*END

*D_NET *113 0.00303796
*CONN
*I *1289:A I *D sg13cmos5l_and3_1
*I *1290:A1 I *D sg13cmos5l_a21oi_1
*I *1283:Y O *D sg13cmos5l_nand2_1
*CAP
1 *1289:A 0.000393263
2 *1290:A1 0
3 *1283:Y 0.000244319
4 *113:22 0.000415477
5 *113:14 0.00118672
6 *113:10 0.000622298
7 *1289:A *1289:B 0
8 *1289:A *1771:RESET_B 0
9 *1289:A *1944:A 0
10 *1289:A *671:49 0
11 *113:10 *1283:B 1.54008e-05
12 *113:10 *616:10 0
13 *113:10 *648:20 6.48152e-05
14 *113:10 *648:35 0
15 *113:14 *1944:A 0
16 *113:14 *616:10 0
17 *113:14 *671:49 0
18 *113:22 *1289:B 0
19 *113:22 *1290:A2 1.54556e-05
20 *113:22 *1290:B1 0
21 *113:22 *116:17 0
22 *113:22 *119:14 0
23 *113:22 *717:30 0
24 *1770:D *113:14 8.0216e-05
25 *46:8 *113:10 0
26 *111:12 *113:22 0
*RES
1 *1283:Y *113:10 42.369 
2 *113:10 *113:14 23.1312 
3 *113:14 *113:22 43.8831 
4 *113:22 *1290:A1 20 
5 *113:14 *1289:A 23.5123 
*END

*D_NET *114 0.00203545
*CONN
*I *1285:C I *D sg13cmos5l_nor3_1
*I *1286:B1 I *D sg13cmos5l_o21ai_1
*I *1284:X O *D sg13cmos5l_xor2_1
*CAP
1 *1285:C 0.000101704
2 *1286:B1 0.000152225
3 *1284:X 0.000296581
4 *114:8 0.00055051
5 *1285:C *1287:A 1.54556e-05
6 *1286:B1 *1287:B_N 0.000209856
7 *1286:B1 *116:17 1.54556e-05
8 *114:8 *1287:A 0
9 *114:8 *1287:B_N 0
10 *1282:A *114:8 0.00037214
11 *1285:B *1285:C 4.78521e-05
12 *1286:A1 *1285:C 0.000128618
13 *1286:A1 *1286:B1 0
14 *1286:A2 *1286:B1 0.000145056
15 *108:10 *114:8 0
*RES
1 *1284:X *114:8 23.2651 
2 *114:8 *1286:B1 21.751 
3 *114:8 *1285:C 21.3802 
*END

*D_NET *115 0.000258851
*CONN
*I *1287:A I *D sg13cmos5l_nor2b_1
*I *1285:Y O *D sg13cmos5l_nor3_1
*CAP
1 *1287:A 0.000121698
2 *1285:Y 0.000121698
3 *1285:C *1287:A 1.54556e-05
4 *108:10 *1287:A 0
5 *114:8 *1287:A 0
*RES
1 *1285:Y *1287:A 41.236 
*END

*D_NET *116 0.00249816
*CONN
*I *1289:B I *D sg13cmos5l_and3_1
*I *1290:A2 I *D sg13cmos5l_a21oi_1
*I *1287:B_N I *D sg13cmos5l_nor2b_1
*I *1286:Y O *D sg13cmos5l_o21ai_1
*CAP
1 *1289:B 0.000580716
2 *1290:A2 0.000106041
3 *1287:B_N 0.000159564
4 *1286:Y 0
5 *116:17 0.000961406
6 *116:4 0.000434213
7 *1289:B *1677:A 0
8 *1289:B *472:8 0
9 *1289:B *605:8 0
10 *1289:B *647:14 0
11 *1290:A2 *1290:B1 0
12 *116:17 *118:8 0
13 *116:17 *119:14 0
14 *116:17 *605:8 0
15 *1282:A *1287:B_N 1.54556e-05
16 *1286:B1 *1287:B_N 0.000209856
17 *1286:B1 *116:17 1.54556e-05
18 *1286:A2 *116:17 0
19 *1289:A *1289:B 0
20 *113:22 *1289:B 0
21 *113:22 *1290:A2 1.54556e-05
22 *113:22 *116:17 0
23 *114:8 *1287:B_N 0
*RES
1 *1286:Y *116:4 20 
2 *116:4 *1287:B_N 21.8334 
3 *116:4 *116:17 23.0488 
4 *116:17 *1290:A2 40.9682 
5 *116:17 *1289:B 45.2118 
*END

*D_NET *117 0.00250685
*CONN
*I *1289:C I *D sg13cmos5l_and3_1
*I *1290:B1 I *D sg13cmos5l_a21oi_1
*I *1288:Y O *D sg13cmos5l_xnor2_1
*CAP
1 *1289:C 0
2 *1290:B1 0.000201553
3 *1288:Y 0.000394128
4 *117:24 0.000192575
5 *1290:B1 *119:14 0.000241423
6 *1290:B1 *647:14 0
7 *117:24 *118:8 0.000661681
8 *117:24 *605:8 0.000767744
9 *117:24 *647:14 4.77425e-05
10 *1290:A2 *1290:B1 0
11 *113:22 *1290:B1 0
*RES
1 *1288:Y *1290:B1 42.2145 
2 *1288:Y *117:24 43.8831 
3 *117:24 *1289:C 40 
*END

*D_NET *118 0.00184279
*CONN
*I *1291:A I *D sg13cmos5l_nor2_1
*I *1289:X O *D sg13cmos5l_and3_1
*CAP
1 *1291:A 3.73128e-05
2 *1289:X 0.000553242
3 *118:8 0.000590555
4 *1291:A *1292:B1 0
5 *118:8 *605:8 0
6 *47:10 *118:8 0
7 *116:17 *118:8 0
8 *117:24 *118:8 0.000661681
*RES
1 *1289:X *118:8 45.5414 
2 *118:8 *1291:A 40.3193 
*END

*D_NET *119 0.00153742
*CONN
*I *1292:B1 I *D sg13cmos5l_a21oi_1
*I *1291:B I *D sg13cmos5l_nor2_1
*I *1290:Y O *D sg13cmos5l_a21oi_1
*CAP
1 *1292:B1 0.000200813
2 *1291:B 0
3 *1290:Y 0.000383131
4 *119:14 0.000583943
5 *1292:B1 *605:27 0
6 *119:14 *605:12 0
7 *119:14 *647:14 0
8 *1286:A1 *119:14 8.03692e-05
9 *1290:B1 *119:14 0.000241423
10 *1291:A *1292:B1 0
11 *47:10 *1292:B1 4.77425e-05
12 *113:22 *119:14 0
13 *116:17 *119:14 0
*RES
1 *1290:Y *119:14 24.5938 
2 *119:14 *1291:B 20 
3 *119:14 *1292:B1 21.8334 
*END

*D_NET *120 0.00113022
*CONN
*I *1299:A1 I *D sg13cmos5l_o21ai_1
*I *1935:A I *D sg13cmos5l_dlygate4sd3_1
*I *1292:Y O *D sg13cmos5l_a21oi_1
*CAP
1 *1299:A1 0.000348848
2 *1935:A 0
3 *1292:Y 0.00016845
4 *120:8 0.000517298
5 *1299:A1 *1296:B 0
6 *1299:A1 *1299:A2 1.54008e-05
7 *1299:A1 *1301:A2 0
8 *1299:A1 *122:20 8.02269e-05
9 *1299:A1 *126:10 0
10 *120:8 *1296:B 0
*RES
1 *1292:Y *120:8 21.9673 
2 *120:8 *1935:A 20 
3 *120:8 *1299:A1 24.0268 
*END

*D_NET *121 0.000798537
*CONN
*I *1295:A I *D sg13cmos5l_nor2b_1
*I *1299:A2 I *D sg13cmos5l_o21ai_1
*I *1293:Y O *D sg13cmos5l_nor2_1
*CAP
1 *1295:A 0.000111633
2 *1299:A2 2.66695e-05
3 *1293:Y 0.000191787
4 *121:8 0.000330089
5 *1295:A *122:20 0
6 *1299:A2 *1299:B1 4.77425e-05
7 *121:8 *122:20 7.52149e-05
8 *1299:A1 *1299:A2 1.54008e-05
*RES
1 *1293:Y *121:8 42.0806 
2 *121:8 *1299:A2 40.3193 
3 *121:8 *1295:A 41.1639 
*END

*D_NET *122 0.00138933
*CONN
*I *1299:B1 I *D sg13cmos5l_o21ai_1
*I *1295:B_N I *D sg13cmos5l_nor2b_1
*I *1294:Y O *D sg13cmos5l_nand2_1
*CAP
1 *1299:B1 5.098e-05
2 *1295:B_N 0
3 *1294:Y 0.00018145
4 *122:20 0.000213853
5 *122:12 0.000403918
6 *122:8 0.000320535
7 *1299:B1 *126:10 1.5412e-05
8 *122:8 *647:42 0
9 *122:12 *1296:B 0
10 *122:20 *647:42 0
11 *1295:A *122:20 0
12 *1299:A1 *122:20 8.02269e-05
13 *1299:A2 *1299:B1 4.77425e-05
14 *48:12 *122:12 0
15 *121:8 *122:20 7.52149e-05
*RES
1 *1294:Y *122:8 41.8334 
2 *122:8 *122:12 21.1845 
3 *122:12 *122:20 42.369 
4 *122:20 *1295:B_N 20 
5 *122:12 *1299:B1 20.5356 
*END

*D_NET *123 0.00100034
*CONN
*I *1296:B I *D sg13cmos5l_xnor2_1
*I *1295:Y O *D sg13cmos5l_nor2b_1
*CAP
1 *1296:B 0.000378998
2 *1295:Y 0.000378998
3 *1296:B *1296:A 0.000242341
4 *1299:A1 *1296:B 0
5 *48:12 *1296:B 0
6 *120:8 *1296:B 0
7 *122:12 *1296:B 0
*RES
1 *1295:Y *1296:B 43.6948 
*END

*D_NET *124 0.000551476
*CONN
*I *1301:B1 I *D sg13cmos5l_a21o_1
*I *1297:X O *D sg13cmos5l_and2_1
*CAP
1 *1301:B1 3.15435e-05
2 *1297:X 0.000126581
3 *124:8 0.000158124
4 *1301:B1 *1300:A 0
5 *1301:B1 *125:6 0
6 *124:8 *1297:A 0.000235228
7 *124:8 *1297:B 0
*RES
1 *1297:X *124:8 41.8334 
2 *124:8 *1301:B1 40.3193 
*END

*D_NET *125 0.0012046
*CONN
*I *1301:A1 I *D sg13cmos5l_a21o_1
*I *1300:A I *D sg13cmos5l_xor2_1
*I *1298:X O *D sg13cmos5l_xor2_1
*CAP
1 *1301:A1 2.36489e-05
2 *1300:A 0.000196916
3 *1298:X 0.0002317
4 *125:6 0.000452266
5 *1300:A *1297:B 0
6 *1300:A *1301:A2 0.000187382
7 *1301:A1 *1301:A2 0
8 *125:6 *1297:B 0
9 *125:6 *1298:B 0.000112689
10 *125:6 *127:8 0
11 *125:6 *494:8 0
12 *1301:B1 *1300:A 0
13 *1301:B1 *125:6 0
*RES
1 *1298:X *125:6 22.4823 
2 *125:6 *1300:A 22.1836 
3 *125:6 *1301:A1 20.3502 
*END

*D_NET *126 0.00132248
*CONN
*I *1300:B I *D sg13cmos5l_xor2_1
*I *1301:A2 I *D sg13cmos5l_a21o_1
*I *1299:Y O *D sg13cmos5l_o21ai_1
*CAP
1 *1300:B 0
2 *1301:A2 0.000173039
3 *1299:Y 0.000249441
4 *126:10 0.00042248
5 *1299:B1 *126:10 1.5412e-05
6 *1299:A1 *1301:A2 0
7 *1299:A1 *126:10 0
8 *1300:A *1301:A2 0.000187382
9 *1301:A1 *1301:A2 0
10 *48:12 *126:10 0.000274726
*RES
1 *1299:Y *126:10 22.9664 
2 *126:10 *1301:A2 22.0961 
3 *126:10 *1300:B 20 
*END

*D_NET *127 0.00610943
*CONN
*I *1303:A I *D sg13cmos5l_xnor2_1
*I *1307:B1 I *D sg13cmos5l_a21o_1
*I *1301:X O *D sg13cmos5l_a21o_1
*CAP
1 *1303:A 0.000714035
2 *1307:B1 0
3 *1301:X 0.000756072
4 *127:16 0.000475892
5 *127:8 0.001946
6 *1303:A *1302:B 0
7 *1303:A *128:10 4.77425e-05
8 *1303:A *589:22 0
9 *127:8 *1298:A 4.77425e-05
10 *127:8 *494:8 0
11 *127:8 *586:145 4.78195e-05
12 *127:16 *1307:A1 0.000176742
13 *127:16 *1774:RESET_B 0.000448427
14 *127:16 *562:27 0.000208615
15 *127:16 *586:145 0
16 *127:16 *589:14 4.69735e-05
17 *127:16 *589:22 0.00119337
18 *127:16 *632:14 0
19 *125:6 *127:8 0
*RES
1 *1301:X *127:8 24.5629 
2 *127:8 *127:16 47.1894 
3 *127:16 *1307:B1 20 
4 *127:8 *1303:A 25.1912 
*END

*D_NET *128 0.00270953
*CONN
*I *1920:A I *D sg13cmos5l_dlygate4sd3_1
*I *1302:Y O *D sg13cmos5l_xnor2_1
*CAP
1 *1920:A 0.000129443
2 *1302:Y 0.000586605
3 *128:10 0.000716049
4 *1920:A *1307:A2 4.70638e-05
5 *1920:A *1775:RESET_B 0
6 *128:10 *1302:B 0.000842248
7 *128:10 *642:101 0.000287343
8 *128:10 *643:107 5.30319e-05
9 *1303:A *128:10 4.77425e-05
10 *1775:D *1920:A 0
11 *1921:A *1920:A 0
*RES
1 *1302:Y *128:10 46.1079 
2 *128:10 *1920:A 41.1845 
*END

*D_NET *129 0.00825511
*CONN
*I *1312:B1 I *D sg13cmos5l_o21ai_1
*I *1304:Y O *D sg13cmos5l_nand2_1
*CAP
1 *1312:B1 0
2 *1304:Y 0.000179061
3 *129:14 0.00105655
4 *129:8 0.00123561
5 *129:8 *1304:B 0.000273299
6 *129:8 *642:101 0.000111747
7 *129:14 *1304:B 0.000447183
8 *129:14 *1312:A2 0.000112426
9 *129:14 *130:12 0
10 *129:14 *590:8 0.000553334
11 *129:14 *671:59 0
12 *129:14 *718:19 0.00240262
13 *35:10 *129:14 0.00188328
*RES
1 *1304:Y *129:8 41.8334 
2 *129:8 *129:14 36.7375 
3 *129:14 *1312:B1 20 
*END

*D_NET *130 0.00585154
*CONN
*I *1312:A1 I *D sg13cmos5l_o21ai_1
*I *1305:Y O *D sg13cmos5l_nor2_1
*CAP
1 *1312:A1 0
2 *1305:Y 0
3 *130:12 0.00104588
4 *130:6 0.00104588
5 *130:12 *1306:B 0
6 *130:12 *1312:A2 0.000112426
7 *130:12 *563:32 0.00135578
8 *130:12 *590:8 0.000182525
9 *130:12 *643:67 0.000144089
10 *130:12 *643:107 0
11 *35:10 *130:12 0.00156915
12 *38:8 *130:12 0.000395811
13 *39:10 *130:12 0
14 *129:14 *130:12 0
*RES
1 *1305:Y *130:6 40 
2 *130:6 *130:12 34.0801 
3 *130:12 *1312:A1 20 
*END

*D_NET *131 0.00206251
*CONN
*I *1309:A I *D sg13cmos5l_xnor2_1
*I *1306:Y O *D sg13cmos5l_xnor2_1
*CAP
1 *1309:A 0.000110052
2 *1306:Y 0.000296564
3 *131:10 0.000406616
4 *1309:A *1309:B 0.000112552
5 *1309:A *643:107 0
6 *131:10 *1309:B 0.000394151
7 *131:10 *1312:A2 0.000343489
8 *131:10 *563:32 0
9 *131:10 *643:107 0.000399086
10 *39:10 *1309:A 0
*RES
1 *1306:Y *131:10 44.0994 
2 *131:10 *1309:A 40.9682 
*END

*D_NET *132 0.00237017
*CONN
*I *1308:B1 I *D sg13cmos5l_o21ai_1
*I *1307:X O *D sg13cmos5l_a21o_1
*CAP
1 *1308:B1 0.000307721
2 *1307:X 0.000613376
3 *132:10 0.000921097
4 *1308:B1 *1308:A1 0.000176742
5 *1308:B1 *1308:A2 1.54008e-05
6 *1308:B1 *1820:CLK 0
7 *1308:B1 *133:8 4.77425e-05
8 *1308:B1 *643:107 0
9 *132:10 *1308:A1 0
10 *132:10 *1775:RESET_B 0.000288088
11 *132:10 *562:27 0
12 *132:10 *589:8 0
*RES
1 *1307:X *132:10 45.0882 
2 *132:10 *1308:B1 43.4299 
*END

*D_NET *133 0.00278854
*CONN
*I *1312:A2 I *D sg13cmos5l_o21ai_1
*I *1309:B I *D sg13cmos5l_xnor2_1
*I *1308:Y O *D sg13cmos5l_o21ai_1
*CAP
1 *1312:A2 0.000476266
2 *1309:B 0.000242603
3 *1308:Y 2.60565e-05
4 *133:8 0.000744925
5 *1312:A2 *563:32 0
6 *1312:A2 *594:69 0
7 *1312:A2 *643:67 0.00012816
8 *133:8 *643:107 4.77425e-05
9 *1308:B1 *133:8 4.77425e-05
10 *1309:A *1309:B 0.000112552
11 *129:14 *1312:A2 0.000112426
12 *130:12 *1312:A2 0.000112426
13 *131:10 *1309:B 0.000394151
14 *131:10 *1312:A2 0.000343489
*RES
1 *1308:Y *133:8 40.3193 
2 *133:8 *1309:B 42.5853 
3 *133:8 *1312:A2 44.5629 
*END

*D_NET *134 0.00550457
*CONN
*I *1874:A I *D sg13cmos5l_buf_1
*I *1313:Y O *D sg13cmos5l_nor2b_1
*CAP
1 *1874:A 0.000747567
2 *1313:Y 0.000413962
3 *134:8 0.00116153
4 *1874:A *1315:A 0
5 *1874:A *621:12 0.000716966
6 *1874:A *667:10 0.000823231
7 *1874:A *688:10 0
8 *134:8 *1313:A 0
9 *134:8 *138:8 0.000818076
10 *134:8 *609:8 0
11 *134:8 *728:10 0
12 *90:37 *134:8 0.000823238
*RES
1 *1313:Y *134:8 46.0358 
2 *134:8 *1874:A 47.9104 
*END

*D_NET *135 0.024028
*CONN
*I *1328:B1 I *D sg13cmos5l_o21ai_1
*I *1448:A I *D sg13cmos5l_nor2_1
*I *1475:A I *D sg13cmos5l_nor2_1
*I *1504:C1 I *D sg13cmos5l_a221oi_1
*I *1479:A2 I *D sg13cmos5l_a21o_1
*I *1314:Y O *D sg13cmos5l_nand2b_1
*CAP
1 *1328:B1 0
2 *1448:A 0.000320903
3 *1475:A 0
4 *1504:C1 0.000309074
5 *1479:A2 0
6 *1314:Y 7.77423e-05
7 *135:100 0.000210071
8 *135:74 0.000677085
9 *135:52 0.00103633
10 *135:46 0.00148272
11 *135:42 0.000995666
12 *135:36 0.00261466
13 *135:20 0.00234637
14 *135:16 0.00133164
15 *135:10 0.000673214
16 *1448:A *1439:B1 0
17 *1448:A *1439:B2 0
18 *1448:A *1444:C 0
19 *1448:A *1448:B 0
20 *1448:A *1476:B 0
21 *1448:A *214:20 0
22 *1448:A *217:12 0
23 *1448:A *252:10 4.77425e-05
24 *1448:A *283:20 0
25 *1448:A *637:84 0
26 *1448:A *665:12 0
27 *1504:C1 *1504:B2 1.54556e-05
28 *1504:C1 *287:10 0
29 *1504:C1 *550:6 0
30 *1504:C1 *550:28 0
31 *135:10 *1387:A2 4.75212e-05
32 *135:10 *190:8 7.92311e-05
33 *135:10 *688:37 0.00012984
34 *135:16 *160:22 0
35 *135:16 *188:62 0.00106128
36 *135:16 *190:16 0.000538597
37 *135:20 *1457:A 0
38 *135:20 *1458:C1 0.000208889
39 *135:20 *1458:B1 0
40 *135:20 *1458:A2 0
41 *135:20 *143:8 0
42 *135:20 *143:25 0
43 *135:20 *188:52 0.000177207
44 *135:20 *231:65 4.77863e-05
45 *135:20 *265:12 0
46 *135:20 *666:79 0
47 *135:20 *734:19 8.0216e-05
48 *135:36 *1328:A1 0
49 *135:36 *1408:A 0
50 *135:36 *1439:B1 0.000451084
51 *135:36 *1470:B 0
52 *135:36 *143:25 0
53 *135:36 *144:12 0
54 *135:36 *187:8 0
55 *135:36 *208:8 0
56 *135:36 *214:30 0.000827419
57 *135:36 *247:22 0.000666605
58 *135:36 *256:58 0
59 *135:36 *269:10 0.00092613
60 *135:36 *270:14 0
61 *135:36 *627:12 0
62 *135:36 *666:79 0
63 *135:36 *666:92 0
64 *135:36 *737:14 0
65 *135:42 *1408:A 0
66 *135:42 *1861:A 0.000145157
67 *135:42 *169:12 0
68 *135:42 *214:30 0.00076689
69 *135:42 *255:8 0
70 *135:42 *258:27 0.000307057
71 *135:42 *283:30 0
72 *135:42 *544:164 0
73 *135:42 *544:174 0
74 *135:42 *636:107 0.00114522
75 *135:42 *663:65 0
76 *135:46 *299:22 0
77 *135:46 *663:65 0.000588728
78 *135:52 *203:41 0
79 *135:52 *550:37 0
80 *135:52 *595:37 9.00785e-05
81 *135:52 *663:65 0.000875946
82 *135:52 *676:25 0.000448428
83 *135:52 *676:52 0.000587086
84 *135:52 *676:65 0.000425086
85 *135:52 *777:15 0
86 *135:74 *1439:B1 0
87 *135:74 *1439:A1 0.000127557
88 *135:74 *1445:B1 0
89 *135:74 *1445:A1 0.000144632
90 *135:74 *203:61 2.18115e-05
91 *135:100 *143:31 0.000235141
92 *135:100 *627:12 0
93 *135:100 *666:92 0
94 *135:100 *680:61 4.78524e-05
95 *1807:D *1504:C1 0
96 *1986:A *135:52 9.00183e-05
97 *3:23 *1504:C1 0
98 *53:8 *135:46 0.000341621
99 *53:8 *135:52 0.00012816
100 *89:29 *135:10 0.000131027
*RES
1 *1314:Y *135:10 41.133 
2 *135:10 *135:16 47.4572 
3 *135:16 *135:20 27.2409 
4 *135:20 *135:36 37.8705 
5 *135:36 *135:42 30.5575 
6 *135:42 *135:46 22.8222 
7 *135:46 *135:52 34.0544 
8 *135:52 *1479:A2 20 
9 *135:46 *1504:C1 41.9909 
10 *135:36 *135:74 23.2142 
11 *135:74 *1475:A 20 
12 *135:74 *1448:A 23.5026 
13 *135:20 *135:100 42.1527 
14 *135:100 *1328:B1 20 
*END

*D_NET *136 0.0066408
*CONN
*I *1418:A1 I *D sg13cmos5l_a22oi_1
*I *1317:B I *D sg13cmos5l_nor3_1
*I *1383:A I *D sg13cmos5l_nand2_1
*I *1315:Y O *D sg13cmos5l_nor2_1
*CAP
1 *1418:A1 0
2 *1317:B 0.000226518
3 *1383:A 0.0002663
4 *1315:Y 0.000305488
5 *136:46 0.000652378
6 *136:25 0.00186029
7 *136:10 0.0012477
8 *136:8 0.000305488
9 *1317:B *1388:B1 0
10 *1317:B *137:62 8.00842e-05
11 *1317:B *190:8 0
12 *1317:B *262:10 2.3022e-05
13 *1383:A *1383:B 0
14 *1383:A *1802:CLK 0
15 *1383:A *192:12 0
16 *1383:A *679:12 0
17 *1383:A *681:52 0
18 *136:8 *1802:CLK 0.000289002
19 *136:8 *639:10 0
20 *136:8 *641:28 0
21 *136:8 *662:8 0
22 *136:8 *774:25 0
23 *136:25 *1314:B 0
24 *136:25 *1381:A 0.000176834
25 *136:25 *1453:B 0.000200304
26 *136:25 *1802:CLK 0
27 *136:25 *190:8 0
28 *136:25 *192:12 0
29 *136:25 *262:10 0.000337485
30 *136:25 *687:10 0
31 *136:46 *1313:A 0.000291062
32 *136:46 *1418:B1 3.16651e-05
33 *136:46 *1418:B2 3.15716e-05
34 *136:46 *191:14 0.000239054
35 *136:46 *191:20 0
36 *136:46 *609:8 7.65602e-05
37 *136:46 *659:16 0
38 *136:46 *688:37 0
39 *89:10 *136:46 0
*RES
1 *1315:Y *136:8 43.5638 
2 *136:8 *136:10 20 
3 *136:10 *1383:A 22.4308 
4 *136:10 *136:25 8.7103 
5 *136:25 *1317:B 22.1733 
6 *136:25 *136:46 46.2469 
7 *136:46 *1418:A1 20 
*END

*D_NET *137 0.00852162
*CONN
*I *1317:C I *D sg13cmos5l_nor3_1
*I *1321:A2 I *D sg13cmos5l_a21oi_1
*I *1322:C I *D sg13cmos5l_and3_1
*I *1319:A2 I *D sg13cmos5l_o21ai_1
*I *1318:A2 I *D sg13cmos5l_a21oi_1
*I *1316:Y O *D sg13cmos5l_nor2_1
*CAP
1 *1317:C 0
2 *1321:A2 0
3 *1322:C 0
4 *1319:A2 0.000110614
5 *1318:A2 0
6 *1316:Y 0.000849623
7 *137:62 0.000200474
8 *137:44 0.000135628
9 *137:38 0.00015859
10 *137:27 0.000595722
11 *137:23 0.000826358
12 *137:16 0.000240646
13 *137:8 0.00125401
14 *1319:A2 *1319:B1 8.02927e-05
15 *1319:A2 *1779:RESET_B 0
16 *137:8 *1779:RESET_B 0
17 *137:8 *1873:A 0.000144894
18 *137:8 *651:22 0
19 *137:8 *679:12 0
20 *137:8 *680:43 0.00017571
21 *137:16 *138:8 0.000765374
22 *137:16 *582:10 0.000287256
23 *137:16 *621:12 0
24 *137:16 *639:50 0
25 *137:16 *668:30 4.78524e-05
26 *137:16 *688:37 0
27 *137:23 *1778:RESET_B 0
28 *137:23 *680:43 0.000240668
29 *137:27 *1319:B1 0
30 *137:27 *1778:RESET_B 8.00842e-05
31 *137:27 *1779:RESET_B 0
32 *137:27 *668:64 0.000177164
33 *137:27 *680:43 0
34 *137:38 *1321:A1 3.23417e-05
35 *137:38 *668:64 4.77425e-05
36 *137:44 *1319:A1 7.51285e-05
37 *137:44 *140:8 0
38 *137:44 *668:45 0.000340375
39 *137:62 *262:10 8.00842e-05
40 *1316:B *137:8 0.000919906
41 *1317:B *137:62 8.00842e-05
42 *1780:D *1319:A2 0
43 *15:8 *137:62 0.000128406
44 *89:29 *137:62 0.000446597
*RES
1 *1316:Y *137:8 28.4563 
2 *137:8 *137:16 43.8831 
3 *137:16 *1318:A2 20 
4 *137:8 *137:23 1.6171 
5 *137:23 *137:27 4.3466 
6 *137:27 *1319:A2 21.3802 
7 *137:27 *137:38 0.5356 
8 *137:38 *137:44 41.8334 
9 *137:44 *1322:C 20 
10 *137:38 *1321:A2 20 
11 *137:23 *137:62 42.6162 
12 *137:62 *1317:C 20 
*END

*D_NET *138 0.00387883
*CONN
*I *1319:B1 I *D sg13cmos5l_o21ai_1
*I *1318:Y O *D sg13cmos5l_a21oi_1
*CAP
1 *1319:B1 0.000740912
2 *1318:Y 0.000342761
3 *138:8 0.00108367
4 *1319:B1 *1779:RESET_B 0
5 *1319:B1 *182:18 0
6 *1319:B1 *262:10 0
7 *1319:A2 *1319:B1 8.02927e-05
8 *1779:D *1319:B1 4.77425e-05
9 *134:8 *138:8 0.000818076
10 *137:16 *138:8 0.000765374
11 *137:27 *1319:B1 0
*RES
1 *1318:Y *138:8 45.5414 
2 *138:8 *1319:B1 46.1594 
*END

*D_NET *139 0.000646137
*CONN
*I *1320:A I *D sg13cmos5l_inv_1
*I *1319:Y O *D sg13cmos5l_o21ai_1
*CAP
1 *1320:A 0.00019516
2 *1319:Y 0.00019516
3 *1320:A *182:18 0.000111016
4 *1320:A *262:10 0.000144801
5 *1320:A *265:12 0
6 *1780:D *1320:A 0
*RES
1 *1319:Y *1320:A 41.9982 
*END

*D_NET *140 0.000825187
*CONN
*I *1949:A I *D sg13cmos5l_dlygate4sd3_1
*I *1321:Y O *D sg13cmos5l_a21oi_1
*CAP
1 *1949:A 0.000141895
2 *1321:Y 0.000198307
3 *140:8 0.000340202
4 *1949:A *1948:A 0
5 *1949:A *621:12 0.000144784
6 *1949:A *651:22 0
7 *140:8 *668:41 0
8 *140:8 *668:45 0
9 *137:44 *140:8 0
*RES
1 *1321:Y *140:8 42.0806 
2 *140:8 *1949:A 41.6171 
*END

*D_NET *141 0.0101259
*CONN
*I *1324:B I *D sg13cmos5l_nor2_1
*I *1325:B I *D sg13cmos5l_and2_1
*I *1323:C I *D sg13cmos5l_nor3_1
*I *1322:X O *D sg13cmos5l_and3_1
*CAP
1 *1324:B 0.000124591
2 *1325:B 0
3 *1323:C 0.00025277
4 *1322:X 0.000420107
5 *141:44 0.00113002
6 *141:36 0.0013144
7 *141:23 0.00053166
8 *141:12 0.000475464
9 *141:10 0.000420107
10 *1323:C *1323:B 0
11 *1323:C *1456:A 0.000274594
12 *1323:C *265:12 0
13 *1323:C *680:43 0
14 *1324:B *1324:A 0
15 *1324:B *1330:A 0.000177053
16 *141:10 *261:10 0.000447182
17 *141:10 *639:75 0.000242154
18 *141:10 *639:86 0
19 *141:10 *651:22 0.000533634
20 *141:10 *734:19 0.000447182
21 *141:23 *143:8 0
22 *141:23 *265:12 0
23 *141:23 *680:50 0
24 *141:36 *1452:B 0.000978834
25 *141:36 *735:12 0
26 *141:44 *1452:A 0
27 *141:44 *1930:A 0
28 *141:44 *142:8 0.00150405
29 *141:44 *145:18 0.000564403
30 *141:44 *735:10 0
31 *1780:D *1323:C 0
32 *1782:D *141:44 0
33 *18:8 *141:36 0.000287672
*RES
1 *1322:X *141:10 45.6444 
2 *141:10 *141:12 20 
3 *141:12 *1323:C 22.6471 
4 *141:12 *141:23 2.0497 
5 *141:23 *1325:B 20 
6 *141:23 *141:36 44.8719 
7 *141:36 *141:44 31.6802 
8 *141:44 *1324:B 41.1845 
*END

*D_NET *142 0.00525923
*CONN
*I *1931:A I *D sg13cmos5l_dlygate4sd3_1
*I *1324:Y O *D sg13cmos5l_nor2_1
*CAP
1 *1931:A 0
2 *1324:Y 0.00107836
3 *142:8 0.00107836
4 *142:8 *1324:A 0.00111456
5 *142:8 *1330:A 0
6 *142:8 *1330:B 6.46946e-05
7 *142:8 *1780:CLK 0
8 *142:8 *1954:A 0
9 *142:8 *144:20 0
10 *142:8 *144:24 0.000177053
11 *142:8 *567:51 0
12 *142:8 *601:10 0.000242138
13 *141:44 *142:8 0.00150405
*RES
1 *1324:Y *142:8 32.8132 
2 *142:8 *1931:A 20 
*END

*D_NET *143 0.00286962
*CONN
*I *1327:B I *D sg13cmos5l_and2_1
*I *1328:A2 I *D sg13cmos5l_o21ai_1
*I *1326:C I *D sg13cmos5l_nor3_1
*I *1325:X O *D sg13cmos5l_and2_1
*CAP
1 *1327:B 0
2 *1328:A2 0
3 *1326:C 0
4 *1325:X 0.000230361
5 *143:31 8.02744e-05
6 *143:25 0.00035925
7 *143:16 0.000317875
8 *143:8 0.000827212
9 *143:8 *265:12 0.000241722
10 *143:8 *680:50 0
11 *143:16 *1326:B 1.54008e-05
12 *143:16 *601:10 0.00012816
13 *143:16 *627:12 0
14 *143:16 *639:93 0
15 *143:16 *680:50 0.000241716
16 *143:16 *735:12 0
17 *143:25 *1325:A 0
18 *143:25 *1328:A1 0
19 *143:25 *144:12 0
20 *143:25 *680:61 0
21 *143:31 *666:92 0
22 *1781:D *143:8 0.000177109
23 *1781:D *143:25 1.54008e-05
24 *135:20 *143:8 0
25 *135:20 *143:25 0
26 *135:36 *143:25 0
27 *135:100 *143:31 0.000235141
28 *141:23 *143:8 0
*RES
1 *1325:X *143:8 22.6162 
2 *143:8 *143:16 43.2033 
3 *143:16 *1326:C 20 
4 *143:8 *143:25 2.7357 
5 *143:25 *143:31 41.0918 
6 *143:31 *1328:A2 20 
7 *143:25 *1327:B 20 
*END

*D_NET *144 0.00567587
*CONN
*I *1331:B I *D sg13cmos5l_and2_1
*I *1330:B I *D sg13cmos5l_nor2_1
*I *1329:A I *D sg13cmos5l_nor2_1
*I *1327:X O *D sg13cmos5l_and2_1
*CAP
1 *1331:B 4.02339e-05
2 *1330:B 0.000226438
3 *1329:A 0
4 *1327:X 0.000391769
5 *144:24 0.000405798
6 *144:20 0.000929208
7 *144:12 0.00118185
8 *1330:B *1330:A 0
9 *1330:B *146:10 0
10 *1331:B *1331:A 4.78356e-05
11 *1331:B *1335:A 6.48368e-05
12 *1331:B *680:76 0
13 *144:12 *1335:A 0.000209747
14 *144:12 *1470:B 0
15 *144:12 *145:10 0
16 *144:12 *680:76 0
17 *144:20 *145:10 0
18 *144:20 *145:18 0.000402508
19 *144:20 *721:10 0.00103427
20 *144:20 *737:14 0
21 vctrl_b_out *1330:B 0
22 *1782:D *144:20 0.000499628
23 *1782:D *144:24 0
24 *21:8 *144:20 0
25 *135:36 *144:12 0
26 *142:8 *1330:B 6.46946e-05
27 *142:8 *144:20 0
28 *142:8 *144:24 0.000177053
29 *143:25 *144:12 0
*RES
1 *1327:X *144:12 24.1818 
2 *144:12 *144:20 49.6305 
3 *144:20 *144:24 1.7819 
4 *144:24 *1329:A 20 
5 *144:24 *1330:B 22.4308 
6 *144:12 *1331:B 20.5356 
*END

*D_NET *145 0.00464653
*CONN
*I *1329:B I *D sg13cmos5l_nor2_1
*I *1328:Y O *D sg13cmos5l_o21ai_1
*CAP
1 *1329:B 0.000226687
2 *1328:Y 0.000539869
3 *145:18 0.000644047
4 *145:10 0.000957229
5 *145:10 *1328:A1 0
6 *145:10 *1954:A 0
7 *145:10 *680:61 0.000209725
8 *145:10 *680:67 0
9 *145:10 *680:76 9.7047e-05
10 vctrl_b_out *1329:B 0.000274189
11 *1782:D *1329:B 0.000177164
12 *1782:D *145:18 0
13 *21:8 *145:10 0.000553662
14 *141:44 *145:18 0.000564403
15 *144:12 *145:10 0
16 *144:20 *145:10 0
17 *144:20 *145:18 0.000402508
*RES
1 *1328:Y *145:10 46.3551 
2 *145:10 *145:18 44.6247 
3 *145:18 *1329:B 42.4308 
*END

*D_NET *146 0.00229972
*CONN
*I *1994:A I *D sg13cmos5l_dlygate4sd3_1
*I *1330:Y O *D sg13cmos5l_nor2_1
*CAP
1 *1994:A 0.000343485
2 *1330:Y 0.000380485
3 *146:10 0.00072397
4 *1994:A *1784:CLK 0
5 *1994:A *1923:A 0
6 *1994:A *680:85 0.000435117
7 *1994:A *739:41 0
8 *146:10 *1330:A 0
9 *146:10 *1784:RESET_B 0.000341534
10 *146:10 *1785:RESET_B 7.51285e-05
11 *146:10 *567:43 0
12 *146:10 *651:28 0
13 *1330:B *146:10 0
*RES
1 *1330:Y *146:10 44.0994 
2 *146:10 *1994:A 43.1312 
*END

*D_NET *147 0.00634598
*CONN
*I *1332:C I *D sg13cmos5l_nor3_1
*I *1333:B I *D sg13cmos5l_nor2_1
*I *1334:B I *D sg13cmos5l_and2_1
*I *1331:X O *D sg13cmos5l_and2_1
*CAP
1 *1332:C 0.000594028
2 *1333:B 0
3 *1334:B 0
4 *1331:X 0.000162957
5 *147:27 0.000569538
6 *147:12 0.000676339
7 *147:8 0.000863787
8 *1332:C *567:43 8.01609e-05
9 *1332:C *639:112 0
10 *1332:C *722:8 0.00012816
11 *147:8 *1335:A 0.000120174
12 *147:8 *1335:C 0
13 *147:12 *1338:A 0
14 *147:12 *593:8 0.000235056
15 *147:27 *1337:B 0.000287256
16 *147:27 *1338:A 0.00135359
17 *147:27 *1338:C 0
18 *147:27 *1339:B1 0
19 *147:27 *149:21 0.000874639
20 *147:27 *150:10 0
21 *147:27 *151:8 0.000287758
22 *147:27 *592:27 0.000112535
23 *147:27 *641:52 0
24 *1784:D *1332:C 0
25 *20:8 *1332:C 0
*RES
1 *1331:X *147:8 41.4008 
2 *147:8 *147:12 21.339 
3 *147:12 *1334:B 20 
4 *147:12 *147:27 49.0228 
5 *147:27 *1333:B 20 
6 *147:8 *1332:C 45.4796 
*END

*D_NET *148 0.00455575
*CONN
*I *1335:B I *D sg13cmos5l_nor3_1
*I *1333:Y O *D sg13cmos5l_nor2_1
*CAP
1 *1335:B 0.000100882
2 *1333:Y 0.000419045
3 *148:22 0.000709168
4 *148:14 0.00102733
5 *1335:B *1335:A 0.000144527
6 *1335:B *1335:C 0
7 *148:14 *1369:A 0
8 *148:14 *1370:A 0.000184858
9 *148:14 *1370:B 8.00842e-05
10 *148:14 *1857:A 0
11 *148:14 *179:12 4.76296e-05
12 *148:14 *223:6 0
13 *148:14 *281:14 0.000181626
14 *148:14 *544:188 0
15 *148:22 *1368:A 0
16 *148:22 *1377:A_N 0.000394651
17 *148:22 *1470:A 0
18 *148:22 *1471:A 0.000795843
19 *148:22 *185:10 0.000288087
20 *148:22 *280:8 0
21 *148:22 *281:14 0.000182023
22 *148:22 *737:14 0
23 *148:22 *738:20 0
*RES
1 *1333:Y *148:14 43.9614 
2 *148:14 *148:22 47.9666 
3 *148:22 *1335:B 40.9682 
*END

*D_NET *149 0.0053141
*CONN
*I *1336:B I *D sg13cmos5l_nor2_1
*I *1337:B I *D sg13cmos5l_and2_1
*I *1335:C I *D sg13cmos5l_nor3_1
*I *1334:X O *D sg13cmos5l_and2_1
*CAP
1 *1336:B 0.00030527
2 *1337:B 0.000118559
3 *1335:C 0.000596656
4 *1334:X 0
5 *149:21 0.000810136
6 *149:4 0.000982963
7 *1335:C *1335:A 0
8 *1335:C *1470:B 0
9 *1335:C *1471:B 0
10 *1335:C *592:27 0
11 *1336:B *1336:A 0
12 *1336:B *150:10 0.000466799
13 *1336:B *567:8 0.000531537
14 *1337:B *150:10 0.000287256
15 *149:21 *150:10 5.30319e-05
16 *149:21 *177:8 0
17 *149:21 *593:8 0
18 *1335:B *1335:C 0
19 *147:8 *1335:C 0
20 *147:27 *1337:B 0.000287256
21 *147:27 *149:21 0.000874639
*RES
1 *1334:X *149:4 20 
2 *149:4 *1335:C 25.2324 
3 *149:4 *149:21 24.5526 
4 *149:21 *1337:B 41.8746 
5 *149:21 *1336:B 43.5638 
*END

*D_NET *150 0.00291618
*CONN
*I *1338:B I *D sg13cmos5l_nor3_1
*I *1336:Y O *D sg13cmos5l_nor2_1
*CAP
1 *1338:B 3.34444e-05
2 *1336:Y 0.000482174
3 *150:10 0.000515618
4 *1338:B *1338:C 4.77425e-05
5 *150:10 *1336:A 0.000272664
6 *150:10 *1337:A 0
7 *150:10 *151:8 0.000234726
8 *150:10 *177:8 7.55443e-05
9 *150:10 *592:14 0.000447182
10 *1336:B *150:10 0.000466799
11 *1337:B *150:10 0.000287256
12 *147:27 *150:10 0
13 *149:21 *150:10 5.30319e-05
*RES
1 *1336:Y *150:10 46.4169 
2 *150:10 *1338:B 40.3193 
*END

*D_NET *151 0.00773847
*CONN
*I *1340:A2 I *D sg13cmos5l_o21ai_1
*I *1342:A2 I *D sg13cmos5l_a21oi_1
*I *1343:C I *D sg13cmos5l_and3_1
*I *1339:A2 I *D sg13cmos5l_a21oi_1
*I *1338:C I *D sg13cmos5l_nor3_1
*I *1337:X O *D sg13cmos5l_and2_1
*CAP
1 *1340:A2 9.42891e-05
2 *1342:A2 0.000108098
3 *1343:C 0.000482992
4 *1339:A2 0
5 *1338:C 5.87917e-05
6 *1337:X 6.65774e-05
7 *151:34 0.000645718
8 *151:32 0.000375265
9 *151:21 0.000562397
10 *151:10 0.000394841
11 *151:8 6.65774e-05
12 *1340:A2 *1340:B1 1.54008e-05
13 *1340:A2 *1340:A1 0.000112552
14 *1340:A2 *153:10 0
15 *1342:A2 *1342:A1 1.54008e-05
16 *1342:A2 *1342:B1 0
17 *1343:C *1342:B1 0.000503343
18 *1343:C *1343:A 0.00113758
19 *1343:C *1787:RESET_B 0.00130669
20 *1343:C *221:27 0
21 *1343:C *702:10 0
22 *1343:C *730:8 0.000234224
23 *1343:C *739:51 7.68089e-05
24 *151:21 *1339:B1 0
25 *151:32 *1339:A1 0.000112426
26 *151:32 *221:27 0
27 *151:32 *739:51 0.000321923
28 *151:34 *1786:RESET_B 0.000107087
29 *151:34 *1787:RESET_B 7.62277e-05
30 *151:34 *221:27 0
31 *151:34 *739:51 0.00021425
32 *1338:B *1338:C 4.77425e-05
33 *1786:D *1342:A2 7.87737e-05
34 *22:10 *151:21 0
35 *147:27 *1338:C 0
36 *147:27 *151:8 0.000287758
37 *150:10 *151:8 0.000234726
*RES
1 *1337:X *151:8 41.339 
2 *151:8 *151:10 20 
3 *151:10 *1338:C 20.5356 
4 *151:10 *151:21 2.9252 
5 *151:21 *1339:A2 20 
6 *151:21 *151:32 22.7707 
7 *151:32 *151:34 1.0918 
8 *151:34 *1343:C 49.0125 
9 *151:34 *1342:A2 41.1845 
10 *151:32 *1340:A2 41.1845 
*END

*D_NET *152 0.000377934
*CONN
*I *1340:B1 I *D sg13cmos5l_o21ai_1
*I *1339:Y O *D sg13cmos5l_a21oi_1
*CAP
1 *1340:B1 0.000181266
2 *1339:Y 0.000181266
3 *1340:B1 *1414:A 0
4 *1340:A2 *1340:B1 1.54008e-05
*RES
1 *1339:Y *1340:B1 41.6274 
*END

*D_NET *153 0.0024062
*CONN
*I *1341:A I *D sg13cmos5l_inv_1
*I *1340:Y O *D sg13cmos5l_o21ai_1
*CAP
1 *1341:A 0
2 *1340:Y 7.11728e-05
3 *153:16 0.000676275
4 *153:10 0.000747448
5 *153:16 *221:33 0
6 *153:16 *270:35 0.000537021
7 *153:16 *281:20 0.000374279
8 *153:16 *681:22 0
9 *1340:A2 *153:10 0
*RES
1 *1340:Y *153:10 40.6695 
2 *153:10 *153:16 46.8083 
3 *153:16 *1341:A 40 
*END

*D_NET *154 0.00305791
*CONN
*I *1971:A I *D sg13cmos5l_dlygate4sd3_1
*I *1342:Y O *D sg13cmos5l_a21oi_1
*CAP
1 *1971:A 9.82736e-05
2 *1342:Y 0.000591951
3 *154:10 0.000690224
4 *1971:A *1787:D 0.000176742
5 *1971:A *221:27 0.000176742
6 *154:10 *1342:A1 0
7 *154:10 *1414:B 0.00119582
8 *154:10 *1415:B_N 0.00012816
9 *154:10 *637:45 0
*RES
1 *1342:Y *154:10 46.5714 
2 *154:10 *1971:A 41.1845 
*END

*D_NET *155 0.0133146
*CONN
*I *1344:C I *D sg13cmos5l_nor3_1
*I *1346:B I *D sg13cmos5l_and2_1
*I *1345:B I *D sg13cmos5l_nor2_1
*I *1343:X O *D sg13cmos5l_and3_1
*CAP
1 *1344:C 0
2 *1346:B 0.000833827
3 *1345:B 0
4 *1343:X 3.00206e-05
5 *155:42 5.56071e-05
6 *155:36 0.00085589
7 *155:16 0.000530099
8 *155:10 0.00156933
9 *155:8 0.00103571
10 *1346:B *1346:A 0
11 *1346:B *1504:B1 1.54556e-05
12 *1346:B *157:8 0.000240459
13 *1346:B *157:17 0.000402108
14 *1346:B *307:10 0
15 *1346:B *704:12 0
16 *1346:B *731:16 0.000708747
17 *1346:B *731:30 4.78356e-05
18 *155:8 *702:10 4.77425e-05
19 *155:10 *1787:CLK 0.000340791
20 *155:10 *156:14 0.0006618
21 *155:10 *566:29 0.000501874
22 *155:10 *566:35 5.30319e-05
23 *155:10 *702:10 0
24 *155:16 *156:14 0.00236928
25 *155:16 *566:35 0.00188527
26 *155:36 *1787:CLK 0.00106645
27 *155:36 *216:14 0
28 *155:36 *221:27 0
29 *155:36 *637:41 0
30 *155:42 *1344:B 1.54008e-05
31 *155:42 *1407:A2 4.78192e-05
32 *155:42 *637:45 0
33 *3:9 *155:16 0
*RES
1 *1343:X *155:8 40.3193 
2 *155:8 *155:10 4.0582 
3 *155:10 *155:16 31.2991 
4 *155:16 *1345:B 20 
5 *155:10 *1346:B 48.1061 
6 *155:8 *155:36 30.1867 
7 *155:36 *155:42 40.5356 
8 *155:42 *1344:C 20 
*END

*D_NET *156 0.00770877
*CONN
*I *1977:A I *D sg13cmos5l_dlygate4sd3_1
*I *1345:Y O *D sg13cmos5l_nor2_1
*CAP
1 *1977:A 0
2 *1345:Y 0
3 *156:14 0.000833934
4 *156:6 0.000833934
5 *156:14 *1463:B 0
6 *156:14 *566:27 0
7 *156:14 *702:10 0.00053364
8 *156:14 *702:16 0.00247618
9 *155:10 *156:14 0.0006618
10 *155:16 *156:14 0.00236928
*RES
1 *1345:Y *156:6 40 
2 *156:6 *156:14 36.5624 
3 *156:14 *1977:A 20 
*END

*D_NET *157 0.00685325
*CONN
*I *1348:A2 I *D sg13cmos5l_a21oi_1
*I *1349:A2 I *D sg13cmos5l_o21ai_1
*I *1347:C I *D sg13cmos5l_nor3_1
*I *1346:X O *D sg13cmos5l_and2_1
*CAP
1 *1348:A2 0.000194503
2 *1349:A2 0
3 *1347:C 0
4 *1346:X 0.000192685
5 *157:27 0.00100335
6 *157:17 0.00143005
7 *157:8 0.000424891
8 *1348:A2 *1348:A1 0.00013933
9 *1348:A2 *1348:B1 0
10 *1348:A2 *1415:B_N 0.000181192
11 *1348:A2 *158:10 0.000393736
12 *1348:A2 *703:12 0.00014474
13 *157:8 *1347:B 1.54008e-05
14 *157:8 *641:82 0
15 *157:17 *1347:B 0.000225004
16 *157:17 *641:72 0
17 *157:17 *704:12 4.76053e-05
18 *157:27 *1349:B1 1.54008e-05
19 *157:27 *1349:A1 1.54008e-05
20 *157:27 *1760:B1 0.000305767
21 *157:27 *1968:A 0
22 *157:27 *158:10 0.00129984
23 *157:27 *308:16 0
24 *157:27 *641:72 0
25 *1346:B *157:8 0.000240459
26 *1346:B *157:17 0.000402108
27 *13:8 *157:17 0
28 *13:16 *157:27 0
29 *14:8 *157:27 0.000181781
30 *76:8 *157:27 0
*RES
1 *1346:X *157:8 21.9673 
2 *157:8 *1347:C 20 
3 *157:8 *157:17 22.6986 
4 *157:17 *157:27 31.4742 
5 *157:27 *1349:A2 20 
6 *157:17 *1348:A2 42.8016 
*END

*D_NET *158 0.00455245
*CONN
*I *1349:B1 I *D sg13cmos5l_o21ai_1
*I *1348:Y O *D sg13cmos5l_a21oi_1
*CAP
1 *1349:B1 0.000297455
2 *1348:Y 0.000821494
3 *158:10 0.00111895
4 *1349:B1 *1349:A1 0
5 *1349:B1 *1760:B1 0.000273893
6 *1349:B1 *731:12 0.000177209
7 *158:10 *1415:B_N 7.51285e-05
8 *158:10 *566:27 7.93426e-05
9 *1348:A2 *158:10 0.000393736
10 *157:27 *1349:B1 1.54008e-05
11 *157:27 *158:10 0.00129984
*RES
1 *1348:Y *158:10 49.0434 
2 *158:10 *1349:B1 42.9149 
*END

*D_NET *159 0.0019484
*CONN
*I *1998:A I *D sg13cmos5l_dlygate4sd3_1
*I *1349:Y O *D sg13cmos5l_o21ai_1
*CAP
1 *1998:A 0.000163734
2 *1349:Y 0.000612933
3 *159:8 0.000776668
4 *1998:A *1788:RESET_B 0
5 *1998:A *704:12 0
6 *159:8 *566:35 0
7 *159:8 *704:12 0.000395067
8 *159:8 *731:12 0
*RES
1 *1349:Y *159:8 45.2942 
2 *159:8 *1998:A 41.4008 
*END

*D_NET *160 0.0134912
*CONN
*I *1872:A I *D sg13cmos5l_buf_1
*I *1418:B2 I *D sg13cmos5l_a22oi_1
*I *1459:B I *D sg13cmos5l_nor3_1
*I *1451:A I *D sg13cmos5l_nor2_1
*I *1351:X O *D sg13cmos5l_and2_1
*CAP
1 *1872:A 0
2 *1418:B2 0.000462078
3 *1459:B 0
4 *1451:A 0
5 *1351:X 0
6 *160:87 0.000348983
7 *160:77 0.000829466
8 *160:43 0.000561927
9 *160:28 0.000200843
10 *160:22 0.00122332
11 *160:18 0.000907117
12 *160:10 0.00184989
13 *160:4 0.00142172
14 *1418:B2 *1418:B1 1.58149e-05
15 *1418:B2 *195:10 0
16 *1418:B2 *227:10 0.000290754
17 *1418:B2 *641:28 0
18 *160:10 *1356:B 0.000552831
19 *160:10 *1365:A 0.000287672
20 *160:10 *1382:B 0
21 *160:10 *161:29 0.000398972
22 *160:10 *161:90 0.000396009
23 *160:10 *193:58 0
24 *160:10 *196:12 0
25 *160:10 *229:27 0.000397293
26 *160:10 *232:8 0.000203385
27 *160:10 *551:12 0
28 *160:10 *636:33 0
29 *160:10 *656:37 8.01609e-05
30 *160:10 *656:48 0.00014404
31 *160:18 *1482:B 0.000130778
32 *160:18 *171:53 0.000146301
33 *160:18 *190:16 2.21849e-05
34 *160:18 *231:46 0
35 *160:18 *231:65 0.00028049
36 *160:18 *247:10 0.000178556
37 *160:18 *667:20 0
38 *160:18 *668:64 0
39 *160:22 *188:37 6.84267e-05
40 *160:22 *667:30 0
41 *160:28 *199:24 0.000274797
42 *160:43 *1470:B 1.54008e-05
43 *160:43 *267:8 7.4933e-05
44 *160:43 *627:12 0
45 *160:43 *666:79 0
46 *160:77 *1432:B1 0.000112426
47 *160:77 *165:16 0.000337638
48 *160:77 *172:10 0.000128355
49 *160:77 *174:18 0.000181192
50 *160:77 *193:48 0
51 *160:77 *194:8 4.78688e-05
52 *160:77 *664:63 0.000181192
53 *160:87 *1427:C 0
54 *160:87 *1433:A2 0
55 *160:87 *1437:A2 0.000208063
56 *160:87 *188:10 0.000451047
57 *160:87 *636:75 4.77425e-05
58 *160:87 *660:153 0
59 *1430:A1 *160:77 0
60 *135:16 *160:22 0
61 *136:46 *1418:B2 3.15716e-05
*RES
1 *1351:X *160:4 20 
2 *160:4 *160:10 31.33 
3 *160:10 *160:18 44.7483 
4 *160:18 *160:22 25.5105 
5 *160:22 *160:28 41.8334 
6 *160:28 *1451:A 20 
7 *160:22 *160:43 46.18 
8 *160:43 *1459:B 20 
9 *160:10 *1418:B2 44.2413 
10 *160:4 *160:77 45.1809 
11 *160:77 *160:87 43.8316 
12 *160:87 *1872:A 20 
*END

*D_NET *161 0.0181498
*CONN
*I *1366:A1 I *D sg13cmos5l_a21oi_1
*I *1422:A1 I *D sg13cmos5l_a21o_1
*I *1365:A I *D sg13cmos5l_nand2_1
*I *1373:B I *D sg13cmos5l_nor2_1
*I *1357:A I *D sg13cmos5l_nor2_1
*I *1360:A1 I *D sg13cmos5l_o21ai_1
*I *1489:B1 I *D sg13cmos5l_a21oi_1
*I *1352:Y O *D sg13cmos5l_nand2_1
*CAP
1 *1366:A1 7.75483e-05
2 *1422:A1 7.87561e-05
3 *1365:A 0.000126729
4 *1373:B 0.0006439
5 *1357:A 0.000145228
6 *1360:A1 0.000588124
7 *1489:B1 0
8 *1352:Y 0.000650719
9 *161:90 0.000276984
10 *161:43 0.00142957
11 *161:35 0.00172995
12 *161:29 0.00122052
13 *161:23 0.00108942
14 *161:10 0.0010585
15 *1357:A *1436:A 5.39028e-06
16 *1357:A *163:29 0.000394242
17 *1357:A *183:10 0.00047017
18 *1360:A1 *163:16 0.000208519
19 *1360:A1 *163:29 0.00169809
20 *1360:A1 *183:10 0.000712478
21 *1360:A1 *624:12 0
22 *1360:A1 *638:104 0.000288598
23 *1360:A1 *665:51 8.02269e-05
24 *1360:A1 *760:10 0
25 *1365:A *1382:B 0.000112426
26 *1365:A *636:33 0.000290042
27 *1366:A1 *1366:A2 1.54008e-05
28 *1366:A1 *1427:A 0
29 *1366:A1 *231:10 0
30 *1373:B *1386:A1 0
31 *1373:B *237:8 0.000108436
32 *1373:B *274:16 0.000181691
33 *1373:B *275:10 0
34 *1373:B *641:34 0
35 *1373:B *660:153 0.000183809
36 *1373:B *667:42 2.23421e-05
37 *1422:A1 *193:58 0.000112426
38 *161:10 *1352:B 0
39 *161:10 *1489:A1 0
40 *161:10 *1800:RESET_B 0
41 *161:10 *171:61 0
42 *161:10 *641:28 0.00023182
43 *161:10 *678:49 0
44 *161:23 *1792:RESET_B 8.02595e-05
45 *161:23 *196:24 0.000501045
46 *161:23 *558:23 0
47 *161:23 *641:28 0
48 *161:23 *762:16 0
49 *161:29 *230:10 0
50 *161:29 *626:31 0
51 *161:29 *636:33 0.000215224
52 *161:29 *681:22 0
53 *161:35 *175:14 0.000474411
54 *161:35 *636:37 0
55 *161:35 *681:22 0
56 *161:43 *174:85 0
57 *161:43 *237:8 0.000184058
58 *161:43 *241:10 0.000289828
59 *161:43 *256:24 0.000474434
60 *161:43 *626:45 0
61 *161:43 *681:22 0
62 *161:90 *636:33 0.000375646
63 *1800:D *161:10 0.000240196
64 *160:10 *1365:A 0.000287672
65 *160:10 *161:29 0.000398972
66 *160:10 *161:90 0.000396009
*RES
1 *1352:Y *161:10 26.2109 
2 *161:10 *1489:B1 20 
3 *161:10 *161:23 44.0994 
4 *161:23 *161:29 28.6417 
5 *161:29 *161:35 44.2127 
6 *161:35 *161:43 47.8395 
7 *161:43 *1360:A1 49.6511 
8 *161:43 *1357:A 42.5853 
9 *161:35 *1373:B 47.0808 
10 *161:29 *161:90 1.8334 
11 *161:90 *1365:A 42.0909 
12 *161:90 *1422:A1 40.7519 
13 *161:29 *1366:A1 40.7519 
*END

*D_NET *162 0.0161577
*CONN
*I *1358:B I *D sg13cmos5l_nand2_1
*I *1487:B I *D sg13cmos5l_nand2_1
*I *1481:A2 I *D sg13cmos5l_a221oi_1
*I *1353:Y O *D sg13cmos5l_nor2b_1
*CAP
1 *1358:B 0
2 *1487:B 5.53569e-05
3 *1481:A2 0
4 *1353:Y 3.02053e-05
5 *162:54 0.000524514
6 *162:35 0.00189485
7 *162:18 0.00183949
8 *162:16 0.000904781
9 *162:10 0.0014293
10 *162:8 3.02053e-05
11 *1487:B *1383:B 1.54556e-05
12 *1487:B *1487:A 0
13 *1487:B *681:52 0
14 *162:8 *1353:B_N 7.65627e-05
15 *162:8 *665:107 0
16 *162:16 *180:58 0.000606364
17 *162:16 *289:8 0
18 *162:16 *658:14 0
19 *162:16 *659:20 0
20 *162:16 *761:8 0.000426756
21 *162:35 *1488:B2 0
22 *162:35 *1791:RESET_B 0
23 *162:35 *1791:D 0.000273693
24 *162:35 *1804:RESET_B 0
25 *162:35 *191:12 0
26 *162:35 *552:6 3.20556e-05
27 *162:35 *552:12 0.000466642
28 *162:35 *656:26 0.000144077
29 *162:35 *656:37 0
30 *162:35 *681:18 0.000615072
31 *162:35 *681:52 0.00228228
32 *162:35 *773:18 0.000499797
33 *162:54 *174:31 0
34 *162:54 *624:12 0.000129592
35 *162:54 *628:10 0.00039332
36 *162:54 *638:98 0.000446597
37 *162:54 *657:12 1.54008e-05
38 *162:54 *658:14 0
39 *162:54 *665:38 0
40 *26:14 *162:35 0.000176863
41 *33:10 *162:35 0.00284851
*RES
1 *1353:Y *162:8 40.3502 
2 *162:8 *162:10 20 
3 *162:10 *162:16 31.3583 
4 *162:16 *162:18 20 
5 *162:18 *1481:A2 20 
6 *162:18 *162:35 46.3191 
7 *162:35 *1487:B 40.5356 
8 *162:10 *162:54 46.9216 
9 *162:54 *1358:B 20 
*END

*D_NET *163 0.0232945
*CONN
*I *1379:A2 I *D sg13cmos5l_a22oi_1
*I *1429:A1 I *D sg13cmos5l_a22oi_1
*I *1500:B I *D sg13cmos5l_nor3_1
*I *1497:A1 I *D sg13cmos5l_o21ai_1
*I *1483:A2 I *D sg13cmos5l_o21ai_1
*I *1357:B I *D sg13cmos5l_nor2_1
*I *1360:A2 I *D sg13cmos5l_o21ai_1
*I *1354:Y O *D sg13cmos5l_nand2b_1
*CAP
1 *1379:A2 0.000305361
2 *1429:A1 0
3 *1500:B 0.000409059
4 *1497:A1 0
5 *1483:A2 0
6 *1357:B 6.48646e-05
7 *1360:A2 0
8 *1354:Y 0
9 *163:97 0.00109959
10 *163:83 0.00190339
11 *163:74 0.000619348
12 *163:66 0.00207058
13 *163:64 0.00172248
14 *163:56 0.000744822
15 *163:50 0.000867896
16 *163:29 0.000731647
17 *163:16 0.000109312
18 *163:8 0.000865075
19 *163:4 0.000572683
20 *1379:A2 *1379:B2 0.000112426
21 *1379:A2 *188:10 0.000129595
22 *1379:A2 *657:12 0.000556221
23 *1379:A2 *664:10 8.00842e-05
24 *1379:A2 *665:107 0
25 *1500:B *767:21 0
26 *163:8 *1401:B 0
27 *163:8 *1401:A 4.70653e-05
28 *163:8 *663:55 0
29 *163:8 *665:51 9.54193e-05
30 *163:8 *665:90 0
31 *163:16 *544:164 0
32 *163:16 *663:59 0.00012816
33 *163:16 *663:65 7.51285e-05
34 *163:16 *740:71 1.54556e-05
35 *163:16 *760:10 4.79124e-05
36 *163:29 *1401:A 8.01118e-05
37 *163:29 *1408:A 0
38 *163:29 *1439:B1 0
39 *163:29 *169:12 0.000501407
40 *163:29 *203:51 0.000288588
41 *163:29 *246:8 0.000340421
42 *163:29 *247:22 0
43 *163:29 *665:51 6.4711e-05
44 *163:29 *760:10 0
45 *163:50 *1447:C 0.000176542
46 *163:50 *256:10 0.00027343
47 *163:50 *624:12 0
48 *163:50 *663:46 0
49 *163:50 *663:55 8.00739e-05
50 *163:50 *665:90 0.000339306
51 *163:50 *665:107 0
52 *163:56 *1429:B1 1.54008e-05
53 *163:56 *238:12 0
54 *163:56 *256:10 0
55 *163:56 *657:16 0
56 *163:64 *1429:B1 4.77425e-05
57 *163:64 *1447:A 0
58 *163:64 *180:14 0.000901852
59 *163:64 *180:24 0.00076971
60 *163:64 *193:33 0
61 *163:64 *544:106 0
62 *163:66 *656:64 0.00100127
63 *163:66 *675:18 0
64 *163:66 *675:24 0
65 *163:74 *1483:B1 4.77425e-05
66 *163:74 *675:24 0
67 *163:83 *306:20 0
68 *163:97 *1497:A2 1.54008e-05
69 *163:97 *1603:A2 0
70 *163:97 *1612:A2 0
71 *163:97 *306:14 0
72 *163:97 *336:10 4.77425e-05
73 *163:97 *405:8 0.000235332
74 *163:97 *571:8 0.00068983
75 *163:97 *571:16 0.00129952
76 *163:97 *572:27 0.000181799
77 *1357:A *163:29 0.000394242
78 *1360:A1 *163:16 0.000208519
79 *1360:A1 *163:29 0.00169809
80 *1483:A1 *163:74 4.77425e-05
81 *1533:B *163:97 4.62024e-05
82 *1965:A *1500:B 0
83 *28:16 *163:74 0
84 *49:12 *163:50 0.000128248
*RES
1 *1354:Y *163:4 20 
2 *163:4 *163:8 0.99395 
3 *163:8 *163:16 41.5965 
4 *163:16 *1360:A2 20 
5 *163:8 *163:29 30.7841 
6 *163:29 *1357:B 40.5356 
7 *163:4 *163:50 25.5362 
8 *163:50 *163:56 20.8549 
9 *163:56 *163:64 48.0855 
10 *163:64 *163:66 12.2158 
11 *163:66 *163:74 45.6135 
12 *163:74 *1483:A2 20 
13 *163:66 *163:83 23.3166 
14 *163:83 *163:97 33.8741 
15 *163:97 *1497:A1 20 
16 *163:83 *1500:B 43.1827 
17 *163:56 *1429:A1 20 
18 *163:50 *1379:A2 44.0685 
*END

*D_NET *164 0.00311277
*CONN
*I *1426:B I *D sg13cmos5l_nand2b_1
*I *1366:B1 I *D sg13cmos5l_a21oi_1
*I *1355:X O *D sg13cmos5l_and3_1
*CAP
1 *1426:B 0.000374126
2 *1366:B1 3.13955e-05
3 *1355:X 0.000343477
4 *164:8 0.000748999
5 *1366:B1 *1427:A 4.77425e-05
6 *1426:B *171:49 0.000451712
7 *1426:B *173:20 0
8 *1426:B *544:140 0
9 *1426:B *551:12 0
10 *1426:B *668:64 0.000128951
11 *1426:B *668:87 0.000111016
12 *164:8 *171:25 0
13 *164:8 *171:36 0
14 *164:8 *171:49 0
15 *164:8 *551:12 0.00087535
*RES
1 *1355:X *164:8 44.0582 
2 *164:8 *1366:B1 40.3193 
3 *164:8 *1426:B 44.2539 
*END

*D_NET *165 0.00642037
*CONN
*I *1420:B I *D sg13cmos5l_and2_1
*I *1425:B I *D sg13cmos5l_nor2_1
*I *1356:Y O *D sg13cmos5l_nand3_1
*CAP
1 *1420:B 6.2559e-05
2 *1425:B 0
3 *1356:Y 0.00118034
4 *165:36 9.64798e-05
5 *165:22 0.000510376
6 *165:16 0.0016568
7 *165:16 *1356:B 0
8 *165:16 *1365:B 0.000112198
9 *165:16 *1382:B 0
10 *165:16 *1382:A 0
11 *165:16 *1385:B 8.01938e-05
12 *165:16 *1417:A1 0
13 *165:16 *1422:A2 2.51839e-05
14 *165:16 *1434:A1 8.0216e-05
15 *165:16 *172:10 4.73361e-05
16 *165:16 *174:85 0.000175709
17 *165:16 *193:58 0
18 *165:16 *194:8 0
19 *165:16 *637:98 0.00019333
20 *165:16 *637:106 0.00011253
21 *165:16 *638:75 0.000209544
22 *165:16 *660:26 7.94055e-05
23 *165:22 *1396:B1 0
24 *165:22 *1396:A2 0.000212127
25 *165:22 *170:53 7.51285e-05
26 *165:22 *170:64 0.000806152
27 *165:22 *234:8 0
28 *165:22 *243:8 0
29 *165:22 *256:37 0
30 *165:22 *636:83 0
31 *165:36 *193:58 0.000183564
32 *165:36 *761:8 0.000183564
33 *160:77 *165:16 0.000337638
*RES
1 *1356:Y *165:16 31.6493 
2 *165:16 *165:22 46.0358 
3 *165:22 *1425:B 20 
4 *1356:Y *165:36 40.8446 
5 *165:36 *1420:B 40.5356 
*END

*D_NET *166 0.00278
*CONN
*I *1396:A1 I *D sg13cmos5l_o21ai_1
*I *1380:A I *D sg13cmos5l_nor2_1
*I *1357:Y O *D sg13cmos5l_nor2_1
*CAP
1 *1396:A1 0.000251494
2 *1380:A 0.000376904
3 *1357:Y 3.49489e-05
4 *166:8 0.000663347
5 *1380:A *1397:C 0
6 *1380:A *1427:C 0
7 *1380:A *1436:A 0.000241847
8 *1380:A *170:70 0.000370625
9 *1380:A *175:22 4.77425e-05
10 *1396:A1 *1396:B1 0
11 *1396:A1 *1396:A2 4.77425e-05
12 *1396:A1 *1397:B 8.00842e-05
13 *1396:A1 *1397:C 0
14 *1396:A1 *1397:A 1.54008e-05
15 *1396:A1 *173:20 0
16 *1396:A1 *175:14 5.30319e-05
17 *1396:A1 *183:10 0.000234224
18 *166:8 *175:14 0.00018091
19 *166:8 *183:10 0.000181694
*RES
1 *1357:Y *166:8 40.8446 
2 *166:8 *1380:A 43.7801 
3 *166:8 *1396:A1 42.7089 
*END

*D_NET *167 0.00628819
*CONN
*I *1403:B I *D sg13cmos5l_xnor2_1
*I *1359:B I *D sg13cmos5l_and2_1
*I *1409:A1 I *D sg13cmos5l_a21oi_1
*I *1358:Y O *D sg13cmos5l_nand2_1
*CAP
1 *1403:B 5.21597e-05
2 *1359:B 0.000288675
3 *1409:A1 0.000113098
4 *1358:Y 0.000381663
5 *167:48 0.000358084
6 *167:22 0.000484947
7 *167:18 0.000619503
8 *167:12 0.000612068
9 *1359:B *1856:A 0
10 *1359:B *740:57 0.000258168
11 *1403:B *1413:A2 0
12 *1403:B *211:19 4.78192e-05
13 *1403:B *739:76 0
14 *1409:A1 *1462:A2 0
15 *1409:A1 *636:107 1.54008e-05
16 *1409:A1 *740:57 0
17 *167:12 *270:14 0.000554444
18 *167:12 *618:10 0.000554323
19 *167:18 *1411:A 0.000144582
20 *167:18 *174:41 0.000241249
21 *167:22 *1474:B1 0.000449032
22 *167:22 *284:8 0.000449032
23 *167:48 *1474:B1 0.000343985
24 *167:48 *216:14 0
25 *167:48 *284:8 0.00031996
*RES
1 *1358:Y *167:12 44.9749 
2 *167:12 *167:18 42.266 
3 *167:18 *167:22 22.0806 
4 *167:22 *1409:A1 20.9682 
5 *167:22 *1359:B 22.8428 
6 *167:18 *167:48 44.2848 
7 *167:48 *1403:B 40.5356 
*END

*D_NET *168 0.000595447
*CONN
*I *1462:A1 I *D sg13cmos5l_o21ai_1
*I *1359:X O *D sg13cmos5l_and2_1
*CAP
1 *1462:A1 0.000238307
2 *1359:X 0.000238307
3 *1462:A1 *1343:B 1.54556e-05
4 *1462:A1 *1462:A2 0.000103377
5 *1462:A1 *740:47 0
*RES
1 *1359:X *1462:A1 42.1012 
*END

*D_NET *169 0.00475778
*CONN
*I *1408:A I *D sg13cmos5l_nor2_1
*I *1406:B1 I *D sg13cmos5l_o21ai_1
*I *1360:Y O *D sg13cmos5l_o21ai_1
*CAP
1 *1408:A 0.000560702
2 *1406:B1 0.00015722
3 *1360:Y 0.000368855
4 *169:12 0.00108678
5 *1406:B1 *1446:B 0
6 *1406:B1 *214:30 0.000112558
7 *1406:B1 *665:61 0
8 *1408:A *1439:B1 0.000182121
9 *1408:A *203:51 0.000287389
10 *1408:A *217:12 0
11 *1408:A *246:8 0.000342222
12 *1408:A *636:107 0.000768209
13 *1408:A *637:84 0.000208621
14 *169:12 *636:107 0.000181695
15 *169:12 *663:65 0
16 *135:36 *1408:A 0
17 *135:42 *1408:A 0
18 *135:42 *169:12 0
19 *163:29 *1408:A 0
20 *163:29 *169:12 0.000501407
*RES
1 *1360:Y *169:12 44.635 
2 *169:12 *1406:B1 41.4008 
3 *169:12 *1408:A 47.0452 
*END

*D_NET *170 0.00961872
*CONN
*I *1396:A2 I *D sg13cmos5l_o21ai_1
*I *1380:B I *D sg13cmos5l_nor2_1
*I *1364:B1 I *D sg13cmos5l_a21o_1
*I *1434:B1 I *D sg13cmos5l_a21oi_1
*I *1374:A2 I *D sg13cmos5l_a22oi_1
*I *1402:A0 I *D sg13cmos5l_mux2_1
*I *1379:B1 I *D sg13cmos5l_a22oi_1
*I *1361:Y O *D sg13cmos5l_nor3_1
*CAP
1 *1396:A2 0.000101062
2 *1380:B 0
3 *1364:B1 0
4 *1434:B1 2.24736e-05
5 *1374:A2 3.34444e-05
6 *1402:A0 0.000324715
7 *1379:B1 0
8 *1361:Y 0
9 *170:80 0.000277314
10 *170:70 0.000543526
11 *170:64 0.000549516
12 *170:53 0.000344047
13 *170:29 0.000383223
14 *170:27 0.000452404
15 *170:18 0.000288062
16 *170:10 0.000734362
17 *170:6 0.00015829
18 *1374:A2 *638:90 4.77425e-05
19 *1396:A2 *1396:B1 4.77425e-05
20 *1402:A0 *1401:A 0
21 *1402:A0 *1402:A1 1.54008e-05
22 *1402:A0 *174:31 0.000209505
23 *1402:A0 *638:98 0
24 *1402:A0 *660:20 0
25 *1402:A0 *663:46 0.000607719
26 *1402:A0 *665:38 0.000571564
27 *1402:A0 *665:51 0
28 *170:10 *660:38 0
29 *170:18 *1379:B2 0
30 *170:18 *181:12 0
31 *170:18 *188:8 0.000177077
32 *170:18 *188:10 0.000342917
33 *170:18 *209:24 0
34 *170:18 *638:61 4.77425e-05
35 *170:18 *664:81 0
36 *170:18 *665:107 0.000128408
37 *170:27 *626:45 0
38 *170:27 *658:14 0
39 *170:29 *665:38 7.65627e-05
40 *170:53 *636:93 0
41 *170:53 *638:83 0
42 *170:53 *663:46 0
43 *170:53 *665:38 0.000289615
44 *170:64 *1397:B 0
45 *170:64 *245:8 0.000615241
46 *170:70 *1397:C 0.000112558
47 *170:70 *1428:A 0
48 *170:70 *173:20 0
49 *170:70 *668:103 0
50 *170:80 *1364:A1 8.00842e-05
51 *170:80 *1427:C 0
52 *170:80 *173:20 8.00842e-05
53 *170:80 *188:10 0
54 *170:80 *660:153 0.000236682
55 *170:80 *668:103 0.000207854
56 *1380:A *170:70 0.000370625
57 *1396:A1 *1396:A2 4.77425e-05
58 *165:22 *1396:A2 0.000212127
59 *165:22 *170:53 7.51285e-05
60 *165:22 *170:64 0.000806152
*RES
1 *1361:Y *170:6 40 
2 *170:6 *170:10 21.6171 
3 *170:10 *170:18 43.2342 
4 *170:18 *1379:B1 20 
5 *170:10 *170:27 23.1312 
6 *170:27 *170:29 0.3502 
7 *170:29 *1402:A0 44.9749 
8 *170:29 *1374:A2 40.3193 
9 *170:27 *170:53 1.8334 
10 *170:53 *1434:B1 40.2112 
11 *170:53 *170:64 3.811 
12 *170:64 *170:70 22.8325 
13 *170:70 *170:80 43.0282 
14 *170:80 *1364:B1 20 
15 *170:70 *1380:B 20 
16 *170:64 *1396:A2 41.4111 
*END

*D_NET *171 0.00921634
*CONN
*I *1386:A0 I *D sg13cmos5l_mux2_1
*I *1438:A I *D sg13cmos5l_nand2_1
*I *1366:A2 I *D sg13cmos5l_a21oi_1
*I *1422:A2 I *D sg13cmos5l_a21o_1
*I *1365:B I *D sg13cmos5l_nand2_1
*I *1362:X O *D sg13cmos5l_or3_1
*CAP
1 *1386:A0 0.00015104
2 *1438:A 0
3 *1366:A2 8.83173e-05
4 *1422:A2 1.88907e-05
5 *1365:B 6.54255e-05
6 *1362:X 0.000313498
7 *171:61 0.000130398
8 *171:53 0.00130997
9 *171:49 0.0017541
10 *171:36 0.000711361
11 *171:25 0.000293284
12 *171:14 0.000453754
13 *1365:B *174:6 8.00655e-05
14 *1386:A0 *1386:A1 1.54008e-05
15 *1386:A0 *290:14 1.54008e-05
16 *1386:A0 *641:28 0.000208063
17 *171:14 *172:10 2.20966e-05
18 *171:14 *174:18 0.000660336
19 *171:14 *209:24 1.51e-05
20 *171:14 *661:40 7.51285e-05
21 *171:14 *661:53 0.000552831
22 *171:14 *664:16 0
23 *171:36 *172:14 0.000183812
24 *171:49 *1482:B 0.00074725
25 *171:49 *172:14 0.000504525
26 *171:49 *668:64 0
27 *171:53 *247:10 0
28 *171:61 *1489:A1 8.00959e-05
29 *171:61 *202:103 0
30 *1366:A1 *1366:A2 1.54008e-05
31 *1426:B *171:49 0.000451712
32 *1800:D *171:61 1.54008e-05
33 *160:18 *171:53 0.000146301
34 *161:10 *171:61 0
35 *164:8 *171:25 0
36 *164:8 *171:36 0
37 *164:8 *171:49 0
38 *165:16 *1365:B 0.000112198
39 *165:16 *1422:A2 2.51839e-05
*RES
1 *1362:X *171:14 44.7689 
2 *171:14 *1365:B 40.7519 
3 *171:14 *171:25 0.5974 
4 *171:25 *1422:A2 40.1699 
5 *171:25 *171:36 1.8334 
6 *171:36 *1366:A2 40.7519 
7 *171:36 *171:49 6.1079 
8 *171:49 *171:53 31.3506 
9 *171:53 *171:61 41.3184 
10 *171:61 *1438:A 20 
11 *171:49 *1386:A0 41.4008 
*END

*D_NET *172 0.0102411
*CONN
*I *1480:A2 I *D sg13cmos5l_a22oi_1
*I *1488:A2 I *D sg13cmos5l_a22oi_1
*I *1482:B I *D sg13cmos5l_nand2_1
*I *1364:A2 I *D sg13cmos5l_a21o_1
*I *1363:X O *D sg13cmos5l_and2_1
*CAP
1 *1480:A2 0
2 *1488:A2 0.000336661
3 *1482:B 0.000299739
4 *1364:A2 4.45482e-05
5 *1363:X 0.000202403
6 *172:54 0.00165595
7 *172:20 0.000335727
8 *172:14 0.000822441
9 *172:10 0.00175322
10 *1364:A2 *1364:A1 8.16242e-05
11 *1364:A2 *668:103 8.16242e-05
12 *1482:B *195:10 0.000144018
13 *1482:B *290:14 7.9225e-05
14 *1482:B *667:30 0.000373595
15 *1482:B *667:32 0.000556815
16 *1488:A2 *288:8 0
17 *1488:A2 *298:18 0
18 *1488:A2 *772:48 8.00842e-05
19 *172:10 *174:6 1.51e-05
20 *172:10 *174:85 4.73361e-05
21 *172:10 *290:28 0
22 *172:14 *231:10 0
23 *172:14 *667:32 0.000159568
24 *172:14 *667:42 0.00012938
25 *172:20 *233:24 0
26 *172:20 *290:24 0.000145871
27 *172:20 *637:114 0.000474661
28 *172:54 *1356:B 0.00011211
29 *172:54 *1356:A 0.000112332
30 *172:54 *1427:A 0
31 *172:54 *1488:B2 0
32 *172:54 *1491:B1 0
33 *172:54 *1791:RESET_B 0
34 *172:54 *1804:CLK 8.00842e-05
35 *172:54 *191:12 0
36 *172:54 *202:85 0
37 *172:54 *231:10 0.000240433
38 *172:54 *543:10 8.00842e-05
39 *172:54 *668:78 0
40 *172:54 *772:48 3.23417e-05
41 *1805:D *172:54 0
42 *27:29 *172:54 0
43 *160:18 *1482:B 0.000130778
44 *160:77 *172:10 0.000128355
45 *165:16 *172:10 4.73361e-05
46 *171:14 *172:10 2.20966e-05
47 *171:36 *172:14 0.000183812
48 *171:49 *1482:B 0.00074725
49 *171:49 *172:14 0.000504525
*RES
1 *1363:X *172:10 41.9055 
2 *172:10 *172:14 3.3887 
3 *172:14 *172:20 43.1312 
4 *172:20 *1364:A2 40.5459 
5 *172:14 *1482:B 45.6238 
6 *172:10 *172:54 31.7679 
7 *172:54 *1488:A2 23.5638 
8 *172:54 *1480:A2 20 
*END

*D_NET *173 0.00414316
*CONN
*I *1376:B I *D sg13cmos5l_or2_1
*I *1367:A2 I *D sg13cmos5l_a22oi_1
*I *1364:X O *D sg13cmos5l_a21o_1
*CAP
1 *1376:B 0
2 *1367:A2 0
3 *1364:X 0.00123359
4 *173:35 0.000114289
5 *173:20 0.00134788
6 *173:20 *1240:A 4.77425e-05
7 *173:20 *1391:A2 0.000103903
8 *173:20 *1396:B1 0
9 *173:20 *1397:C 0.000155612
10 *173:20 *1397:A 0
11 *173:20 *1398:A2 0
12 *173:20 *1398:B1 8.00842e-05
13 *173:20 *1399:A2 0.000241368
14 *173:20 *175:22 0
15 *173:20 *179:26 0
16 *173:20 *274:16 0
17 *173:20 *641:28 0
18 *173:20 *641:48 0
19 *173:20 *666:12 0
20 *173:20 *668:103 0
21 *173:20 *738:26 8.00842e-05
22 *173:35 *1369:A 4.78195e-05
23 *173:35 *1377:A_N 0.000288927
24 *173:35 *738:20 0.000289428
25 *173:35 *738:26 3.23417e-05
26 *1396:A1 *173:20 0
27 *1426:B *173:20 0
28 *170:70 *173:20 0
29 *170:80 *173:20 8.00842e-05
*RES
1 *1364:X *173:20 30.9686 
2 *173:20 *1367:A2 20 
3 *173:20 *173:35 42.0858 
4 *173:35 *1376:B 20 
*END

*D_NET *174 0.0114287
*CONN
*I *1465:A I *D sg13cmos5l_nand2_1
*I *1413:A2 I *D sg13cmos5l_a21oi_1
*I *1412:B I *D sg13cmos5l_or2_1
*I *1429:A2 I *D sg13cmos5l_a22oi_1
*I *1365:Y O *D sg13cmos5l_nand2_1
*CAP
1 *1465:A 0
2 *1413:A2 0.00072123
3 *1412:B 0
4 *1429:A2 0
5 *1365:Y 0.000129026
6 *174:85 0.000727895
7 *174:41 0.00104617
8 *174:31 0.00124721
9 *174:18 0.00160253
10 *174:6 0.00153719
11 *1413:A2 *1344:B 0
12 *1413:A2 *1412:A 0.000287872
13 *1413:A2 *211:8 0
14 *1413:A2 *211:19 0
15 *1413:A2 *729:23 1.54008e-05
16 *1413:A2 *740:57 0
17 *174:18 *656:54 0
18 *174:18 *657:18 0
19 *174:18 *657:31 0.00020805
20 *174:18 *657:41 0.00011254
21 *174:18 *661:34 0.000322029
22 *174:18 *661:40 0.000112228
23 *174:18 *664:63 0.000234224
24 *174:31 *1353:B_N 4.77425e-05
25 *174:31 *209:24 0
26 *174:31 *624:12 0
27 *174:31 *657:16 8.00842e-05
28 *174:31 *661:32 0
29 *174:31 *661:34 0
30 *174:41 *1412:A 0
31 *174:41 *257:16 0.000129454
32 *174:41 *285:24 0.000129259
33 *174:41 *740:57 0
34 *174:85 *1385:B 0
35 *174:85 *1386:A1 0.000236789
36 *174:85 *1430:B1 4.72458e-05
37 *174:85 *1430:A2 1.54008e-05
38 *174:85 *1433:B1 4.77425e-05
39 *174:85 *1433:A2 0
40 *174:85 *1437:A2 0.000208063
41 *174:85 *193:44 0.000234224
42 *174:85 *237:8 7.65602e-05
43 *174:85 *664:63 4.77425e-05
44 *1365:B *174:6 8.00655e-05
45 *1402:A0 *174:31 0.000209505
46 *1403:B *1413:A2 0
47 *1955:A *174:31 0
48 *1972:A *1413:A2 3.8117e-05
49 *12:18 *1413:A2 0.000176223
50 *87:16 *174:85 0
51 *160:77 *174:18 0.000181192
52 *161:43 *174:85 0
53 *162:54 *174:31 0
54 *165:16 *174:85 0.000175709
55 *167:18 *174:41 0.000241249
56 *171:14 *174:18 0.000660336
57 *172:10 *174:6 1.51e-05
58 *172:10 *174:85 4.73361e-05
*RES
1 *1365:Y *174:6 20.9682 
2 *174:6 *174:18 47.9207 
3 *174:18 *1429:A2 20 
4 *174:18 *174:31 49.0743 
5 *174:31 *174:41 43.4299 
6 *174:41 *1412:B 20 
7 *174:41 *1413:A2 27.1276 
8 *174:6 *174:85 47.7353 
9 *174:85 *1465:A 20 
*END

*D_NET *175 0.00567898
*CONN
*I *1369:B I *D sg13cmos5l_nor2_1
*I *1367:B1 I *D sg13cmos5l_a22oi_1
*I *1366:Y O *D sg13cmos5l_a21oi_1
*CAP
1 *1369:B 0
2 *1367:B1 0
3 *1366:Y 0
4 *175:43 0.000353392
5 *175:22 0.000885066
6 *175:14 0.00145204
7 *175:6 0.00092037
8 *175:14 *1397:B 0.000129592
9 *175:14 *636:52 0
10 *175:14 *636:75 0
11 *175:14 *636:83 0
12 *175:14 *636:93 0.0001292
13 *175:14 *667:42 0
14 *175:14 *681:22 0
15 *175:22 *1367:A1 4.78524e-05
16 *175:22 *1397:C 8.00842e-05
17 *175:22 *1399:A1 0
18 *175:22 *1399:A2 0
19 *175:22 *1436:A 7.74989e-05
20 *175:22 *176:10 4.79124e-05
21 *175:22 *179:26 8.02924e-05
22 *175:22 *214:20 0
23 *175:22 *737:24 0.000111568
24 *175:22 *738:26 0
25 *175:43 *1369:A 0
26 *175:43 *1377:A_N 0.000181508
27 *175:43 *1473:A 0
28 *175:43 *176:10 4.78356e-05
29 *175:43 *178:10 0.00016555
30 *175:43 *214:20 0
31 *175:43 *223:6 1.54008e-05
32 *175:43 *223:14 0.000175721
33 *175:43 *223:66 2.19989e-05
34 *175:43 *738:26 0
35 *1380:A *175:22 4.77425e-05
36 *1396:A1 *175:14 5.30319e-05
37 *161:35 *175:14 0.000474411
38 *166:8 *175:14 0.00018091
39 *173:20 *175:22 0
*RES
1 *1366:Y *175:6 40 
2 *175:6 *175:14 49.8468 
3 *175:14 *175:22 25.3457 
4 *175:22 *1367:B1 20 
5 *175:22 *175:43 44.0479 
6 *175:43 *1369:B 20 
*END

*D_NET *176 0.00520707
*CONN
*I *1368:A I *D sg13cmos5l_inv_1
*I *1377:C I *D sg13cmos5l_nand3b_1
*I *1370:A I *D sg13cmos5l_nor2_1
*I *1367:Y O *D sg13cmos5l_a22oi_1
*CAP
1 *1368:A 0.000649494
2 *1377:C 0
3 *1370:A 0.000142966
4 *1367:Y 8.92793e-05
5 *176:27 0.000752712
6 *176:16 0.000461757
7 *176:10 0.000511289
8 *1368:A *737:14 0.000532395
9 *1368:A *738:20 0.000287343
10 *1370:A *641:48 0
11 *176:10 *1369:A 3.24568e-05
12 *176:10 *737:18 0.00018128
13 *176:10 *738:20 0.000129186
14 *176:10 *738:26 4.78359e-05
15 *176:16 *179:16 0
16 *176:16 *179:26 0
17 *176:27 *737:14 0.00034162
18 *176:27 *737:18 0.000213286
19 *176:27 *738:20 0.000553562
20 *148:14 *1370:A 0.000184858
21 *148:22 *1368:A 0
22 *175:22 *176:10 4.79124e-05
23 *175:43 *176:10 4.78356e-05
*RES
1 *1367:Y *176:10 41.3802 
2 *176:10 *176:16 43.5638 
3 *176:16 *1370:A 41.2688 
4 *176:10 *176:27 2.575 
5 *176:27 *1377:C 40 
6 *176:27 *1368:A 46.5714 
*END

*D_NET *177 0.00107617
*CONN
*I *1472:B1 I *D sg13cmos5l_a21oi_1
*I *1368:Y O *D sg13cmos5l_inv_1
*CAP
1 *1472:B1 0
2 *1368:Y 0.000211374
3 *177:8 0.000211374
4 *177:8 *1337:A 0.000236074
5 *177:8 *593:8 0.000341807
6 *149:21 *177:8 0
7 *150:10 *177:8 7.55443e-05
*RES
1 *1368:Y *177:8 42.575 
2 *177:8 *1472:B1 40 
*END

*D_NET *178 0.00365922
*CONN
*I *1370:B I *D sg13cmos5l_nor2_1
*I *1377:A_N I *D sg13cmos5l_nand3b_1
*I *1473:A I *D sg13cmos5l_or3_1
*I *1369:Y O *D sg13cmos5l_nor2_1
*CAP
1 *1370:B 0.000146936
2 *1377:A_N 0.000434894
3 *1473:A 0.000230229
4 *1369:Y 0.000282386
5 *178:10 0.000800573
6 *1370:B *1369:A 0
7 *1377:A_N *1377:B 0
8 *1377:A_N *281:14 0
9 *1377:A_N *641:48 0
10 *1377:A_N *738:20 0
11 *1473:A *214:20 0.000208195
12 *1473:A *223:14 0
13 *1473:A *223:26 0
14 *1473:A *223:66 0
15 *1473:A *281:14 0.00023709
16 *1473:A *285:10 0.000208195
17 *148:14 *1370:B 8.00842e-05
18 *148:22 *1377:A_N 0.000394651
19 *173:35 *1377:A_N 0.000288927
20 *175:43 *1377:A_N 0.000181508
21 *175:43 *1473:A 0
22 *175:43 *178:10 0.00016555
*RES
1 *1369:Y *178:10 41.3184 
2 *178:10 *1473:A 42.8119 
3 *178:10 *1377:A_N 44.8101 
4 *1369:Y *1370:B 41.3802 
*END

*D_NET *179 0.00192105
*CONN
*I *1461:A1 I *D sg13cmos5l_o21ai_1
*I *1399:B1 I *D sg13cmos5l_a21oi_1
*I *1370:Y O *D sg13cmos5l_nor2_1
*CAP
1 *1461:A1 0
2 *1399:B1 0
3 *1370:Y 0.000170378
4 *179:35 0
5 *179:26 0.000248268
6 *179:16 0.000367975
7 *179:12 0.000290086
8 *179:12 *1369:A 0
9 *179:12 *281:14 0.000236778
10 *179:12 *544:188 0
11 *179:16 *223:66 3.26128e-05
12 *179:16 *270:35 0
13 *179:26 *1399:A1 0
14 *179:26 *208:8 0
15 *179:26 *223:66 0.000210954
16 *179:26 *248:10 0
17 *179:26 *249:8 0
18 *179:26 *269:10 0.000236071
19 *148:14 *179:12 4.76296e-05
20 *173:20 *179:26 0
21 *175:22 *179:26 8.02924e-05
22 *176:16 *179:16 0
23 *176:16 *179:26 0
*RES
1 *1370:Y *179:12 41.7613 
2 *179:12 *179:16 20.4768 
3 *179:16 *179:26 43.0282 
4 *179:26 *1399:B1 20 
5 *179:16 *179:35 40 
6 *179:35 *1461:A1 20 
*END

*D_NET *180 0.0227845
*CONN
*I *1429:B1 I *D sg13cmos5l_a22oi_1
*I *1484:A2 I *D sg13cmos5l_a221oi_1
*I *1481:B1 I *D sg13cmos5l_a221oi_1
*I *1501:B I *D sg13cmos5l_and3_1
*I *1496:A I *D sg13cmos5l_nand2_1
*I *1371:Y O *D sg13cmos5l_nor2b_1
*CAP
1 *1429:B1 3.02592e-05
2 *1484:A2 0.000222668
3 *1481:B1 0
4 *1501:B 0
5 *1496:A 0
6 *1371:Y 0.000498272
7 *180:73 0.00128973
8 *180:58 0.000788266
9 *180:46 0.00189183
10 *180:39 0.000614112
11 *180:30 0.00017981
12 *180:24 0.00221809
13 *180:14 0.00294069
14 *180:12 0.000853337
15 *1429:B1 *238:12 4.77425e-05
16 *1484:A2 *1484:B2 0
17 *1484:A2 *292:10 0
18 *1484:A2 *555:14 1.54008e-05
19 *180:12 *1447:A 0
20 *180:12 *209:24 0
21 *180:12 *238:12 1.55212e-05
22 *180:12 *659:41 0.000342383
23 *180:12 *663:28 0.000284417
24 *180:12 *664:10 0.000240196
25 *180:24 *1525:C 0.000184996
26 *180:24 *1733:A 0.000533504
27 *180:24 *1742:B 0
28 *180:24 *1742:A 0.00162115
29 *180:24 *1745:A 0.000447058
30 *180:24 *1995:A 0
31 *180:24 *300:24 0
32 *180:24 *332:14 0
33 *180:24 *529:10 0.000714833
34 *180:24 *532:8 0.000502304
35 *180:24 *544:11 0
36 *180:24 *544:106 0
37 *180:24 *677:30 0
38 *180:24 *695:20 0
39 *180:24 *723:8 0.000160013
40 *180:24 *757:14 0
41 *180:30 *1570:C 0
42 *180:30 *348:22 0
43 *180:30 *368:8 0
44 *180:39 *1803:CLK 0
45 *180:39 *1861:A 0
46 *180:39 *258:27 0.000921294
47 *180:39 *293:14 0
48 *180:39 *544:118 0
49 *180:39 *551:8 0
50 *180:46 *1501:A 0
51 *180:58 *289:8 0
52 *180:58 *293:10 0
53 *180:58 *636:33 0
54 *180:58 *658:41 4.77425e-05
55 *180:58 *658:49 7.55443e-05
56 *180:58 *659:20 0.000340704
57 *180:58 *659:26 0.000234224
58 *180:58 *773:18 4.77425e-05
59 *180:73 *1803:RESET_B 0.000176482
60 *180:73 *305:16 0.000241148
61 *180:73 *546:21 0
62 *180:73 *558:12 0
63 *180:73 *658:76 0
64 *180:73 *674:68 0
65 *180:73 *767:15 0
66 *49:12 *180:14 0
67 *50:14 *180:24 0
68 *50:20 *180:14 0
69 *50:20 *180:24 0
70 *53:16 *180:24 0.000341293
71 *55:10 *180:58 0.000181781
72 *72:8 *180:24 0.00119886
73 *162:16 *180:58 0.000606364
74 *163:56 *1429:B1 1.54008e-05
75 *163:64 *1429:B1 4.77425e-05
76 *163:64 *180:14 0.000901852
77 *163:64 *180:24 0.00076971
*RES
1 *1371:Y *180:12 45.2221 
2 *180:12 *180:14 4.5526 
3 *180:14 *180:24 48.9327 
4 *180:24 *180:30 41.6171 
5 *180:30 *1496:A 20 
6 *180:14 *180:39 26.1594 
7 *180:39 *1501:B 20 
8 *180:39 *180:46 0.3502 
9 *180:46 *180:58 49.0022 
10 *180:58 *1481:B1 20 
11 *180:46 *180:73 49.8262 
12 *180:73 *1484:A2 21.9493 
13 *180:12 *1429:B1 40.3193 
*END

*D_NET *181 0.00220467
*CONN
*I *1374:B1 I *D sg13cmos5l_a22oi_1
*I *1465:B I *D sg13cmos5l_nand2_1
*I *1372:Y O *D sg13cmos5l_nand2b_1
*CAP
1 *1374:B1 0.000274905
2 *1465:B 0
3 *1372:Y 5.48945e-05
4 *181:12 0.000453856
5 *181:6 0.000783655
6 *1374:B1 *1372:B 0
7 *1374:B1 *1895:A 4.77702e-05
8 *1374:B1 *183:8 4.77425e-05
9 *1374:B1 *664:111 0.000112426
10 *181:6 *1372:B 0
11 *181:6 *1379:B2 1.54008e-05
12 *181:6 *209:24 0
13 *181:12 *188:10 0
14 *181:12 *256:10 0
15 *181:12 *637:106 0
16 *181:12 *638:45 0
17 *181:12 *638:51 0
18 *181:12 *664:81 0.000236596
19 *181:12 *666:32 0.000129679
20 *1890:A *1374:B1 4.77425e-05
21 *170:18 *181:12 0
*RES
1 *1372:Y *181:6 20.5356 
2 *181:6 *181:12 44.5526 
3 *181:12 *1465:B 20 
4 *181:6 *1374:B1 22.8531 
*END

*D_NET *182 0.00760887
*CONN
*I *1388:A2 I *D sg13cmos5l_a221oi_1
*I *1381:B I *D sg13cmos5l_nor2_1
*I *1373:Y O *D sg13cmos5l_nor2_1
*CAP
1 *1388:A2 0
2 *1381:B 0
3 *1373:Y 0.000447686
4 *182:40 0.000714252
5 *182:34 0.00119659
6 *182:22 0.000563995
7 *182:18 0.000360705
8 *182:10 0.000726734
9 *182:10 *1386:A1 4.69735e-05
10 *182:10 *1891:A 0.0011404
11 *182:10 *190:33 0
12 *182:10 *198:8 0
13 *182:10 *231:75 0
14 *182:10 *273:20 0.000111683
15 *182:10 *275:10 0
16 *182:10 *641:28 0
17 *182:18 *1389:B 0.000144894
18 *182:18 *1891:A 8.02102e-05
19 *182:18 *190:16 7.38006e-05
20 *182:18 *231:65 0
21 *182:18 *659:14 0.000111016
22 *182:18 *668:64 0
23 *182:22 *231:65 3.92516e-05
24 *182:34 *1388:B1 1.54556e-05
25 *182:34 *188:62 0
26 *182:34 *190:16 0.000145667
27 *182:34 *598:14 0
28 *182:34 *659:14 0
29 *182:40 *1381:A 0
30 *182:40 *1383:B 0.000143368
31 *182:40 *1802:RESET_B 0.000339043
32 *182:40 *190:8 0.00104837
33 *182:40 *192:12 4.77534e-05
34 *1319:B1 *182:18 0
35 *1320:A *182:18 0.000111016
36 *90:18 *182:34 0
*RES
1 *1373:Y *182:10 46.2933 
2 *182:10 *182:18 42.8814 
3 *182:18 *182:22 20.7519 
4 *182:22 *182:34 44.7509 
5 *182:34 *182:40 47.4572 
6 *182:40 *1381:B 20 
7 *182:22 *1388:A2 20 
*END

*D_NET *183 0.00568863
*CONN
*I *1375:B I *D sg13cmos5l_nor2_1
*I *1392:B I *D sg13cmos5l_nand2_1
*I *1374:Y O *D sg13cmos5l_a22oi_1
*CAP
1 *1375:B 2.06589e-05
2 *1392:B 0
3 *1374:Y 0.000198909
4 *183:10 0.000603545
5 *183:8 0.000781795
6 *1375:B *1457:A 0.000106807
7 *1375:B *666:62 0.000129077
8 *183:8 *1358:A 9.7025e-05
9 *183:8 *203:43 0
10 *183:8 *638:83 4.77425e-05
11 *183:8 *638:90 0.000194105
12 *183:8 *658:8 0.000177043
13 *183:10 *1397:A 0.000500302
14 *183:10 *1457:A 7.56308e-05
15 *183:10 *206:8 0
16 *183:10 *628:10 0.000981017
17 *183:10 *636:93 0
18 *183:10 *666:62 0.000128663
19 *1357:A *183:10 0.00047017
20 *1360:A1 *183:10 0.000712478
21 *1374:B1 *183:8 4.77425e-05
22 *1396:A1 *183:10 0.000234224
23 *166:8 *183:10 0.000181694
*RES
1 *1374:Y *183:8 42.266 
2 *183:8 *183:10 9.991 
3 *183:10 *1392:B 40 
4 *183:10 *1375:B 40.5974 
*END

*D_NET *184 0.000638241
*CONN
*I *1460:A I *D sg13cmos5l_nor4_1
*I *1378:A I *D sg13cmos5l_nor2_1
*I *1375:Y O *D sg13cmos5l_nor2_1
*CAP
1 *1460:A 0
2 *1378:A 6.22801e-05
3 *1375:Y 0.000160924
4 *184:6 0.000223204
5 *1378:A *1378:B 0
6 *184:6 *1378:B 0
7 *184:6 *1460:B 1.54556e-05
8 *184:6 *1460:C 0
9 *184:6 *269:10 0
10 *184:6 *278:14 0.000176378
11 *184:6 *641:48 0
*RES
1 *1375:Y *184:6 21.6171 
2 *184:6 *1378:A 20.5974 
3 *184:6 *1460:A 20 
*END

*D_NET *185 0.00317187
*CONN
*I *1471:A I *D sg13cmos5l_and2_1
*I *1377:B I *D sg13cmos5l_nand3b_1
*I *1376:X O *D sg13cmos5l_or2_1
*CAP
1 *1471:A 0.00046705
2 *1377:B 0.000154401
3 *1376:X 0.000112581
4 *185:10 0.000734033
5 *1377:B *1472:A1 0
6 *1471:A *1471:B 0.000176502
7 *1471:A *280:8 0
8 *1471:A *281:14 7.51285e-05
9 *185:10 *281:14 0.000289113
10 *185:10 *641:48 7.91347e-05
11 *1377:A_N *1377:B 0
12 *148:22 *1471:A 0.000795843
13 *148:22 *185:10 0.000288087
*RES
1 *1376:X *185:10 41.8746 
2 *185:10 *1377:B 41.1845 
3 *185:10 *1471:A 45.4281 
*END

*D_NET *186 0.000781714
*CONN
*I *1460:B I *D sg13cmos5l_nor4_1
*I *1378:B I *D sg13cmos5l_nor2_1
*I *1377:Y O *D sg13cmos5l_nand3b_1
*CAP
1 *1460:B 4.00756e-05
2 *1378:B 0.000162512
3 *1377:Y 0.000140395
4 *186:8 0.000342983
5 *1378:B *641:48 8.02924e-05
6 *1460:B *1472:A1 0
7 *186:8 *1472:A1 0
8 *186:8 *641:48 0
9 *1378:A *1378:B 0
10 *184:6 *1378:B 0
11 *184:6 *1460:B 1.54556e-05
*RES
1 *1377:Y *186:8 21.3184 
2 *186:8 *1378:B 21.8746 
3 *186:8 *1460:B 20.5356 
*END

*D_NET *187 0.000701422
*CONN
*I *1399:A1 I *D sg13cmos5l_a21oi_1
*I *1378:Y O *D sg13cmos5l_nor2_1
*CAP
1 *1399:A1 5.02866e-05
2 *1378:Y 0.000196203
3 *187:8 0.00024649
4 *1399:A1 *1399:A2 8.0194e-05
5 *187:8 *247:22 0
6 *187:8 *627:12 0.000128248
7 *135:36 *187:8 0
8 *175:22 *1399:A1 0
9 *179:26 *1399:A1 0
*RES
1 *1378:Y *187:8 42.0806 
2 *187:8 *1399:A1 40.5356 
*END

*D_NET *188 0.0136594
*CONN
*I *1389:A_N I *D sg13cmos5l_nand2b_1
*I *1453:B I *D sg13cmos5l_nand2_1
*I *1454:B I *D sg13cmos5l_nor2_1
*I *1391:A2 I *D sg13cmos5l_a22oi_1
*I *1379:Y O *D sg13cmos5l_a22oi_1
*CAP
1 *1389:A_N 0
2 *1453:B 0.000368387
3 *1454:B 3.07827e-05
4 *1391:A2 0.000144178
5 *1379:Y 0.000122663
6 *188:62 0.00143099
7 *188:56 0.0010626
8 *188:52 0.000213436
9 *188:37 0.000740799
10 *188:10 0.00131808
11 *188:8 0.000799985
12 *1453:B *262:10 0.000532493
13 *1453:B *667:113 0
14 *1454:B *1458:B1 4.77866e-05
15 *1454:B *734:19 0
16 *188:8 *1379:B2 0.000176431
17 *188:10 *637:106 0.00103732
18 *188:10 *638:27 0
19 *188:10 *638:61 0
20 *188:10 *657:12 0
21 *188:10 *660:153 0
22 *188:37 *260:10 0
23 *188:37 *274:8 0
24 *188:37 *275:10 0.00108579
25 *188:37 *638:27 7.65627e-05
26 *188:37 *660:153 0
27 *188:52 *1389:B 1.54556e-05
28 *188:52 *231:65 0
29 *188:52 *260:10 0
30 *188:52 *263:8 0.000181694
31 *188:52 *265:12 0.000242121
32 *188:52 *734:19 0
33 *188:62 *598:14 0
34 *188:62 *679:16 0.000129186
35 *188:62 *762:12 0
36 *1379:A2 *188:10 0.000129595
37 *1391:A1 *188:37 0.000871535
38 *1466:A *188:37 0.000319377
39 *90:18 *188:62 0
40 *90:37 *188:62 0
41 *135:16 *188:62 0.00106128
42 *135:20 *188:52 0.000177207
43 *136:25 *1453:B 0.000200304
44 *160:22 *188:37 6.84267e-05
45 *160:87 *188:10 0.000451047
46 *170:18 *188:8 0.000177077
47 *170:18 *188:10 0.000342917
48 *170:80 *188:10 0
49 *173:20 *1391:A2 0.000103903
50 *181:12 *188:10 0
51 *182:34 *188:62 0
*RES
1 *1379:Y *188:8 41.4008 
2 *188:8 *188:10 8.755 
3 *188:10 *1391:A2 41.3184 
4 *188:10 *188:37 48.4357 
5 *188:37 *1454:B 40.3193 
6 *188:37 *188:52 22.4977 
7 *188:52 *188:56 40 
8 *188:56 *188:62 32.5969 
9 *188:62 *1453:B 43.7801 
10 *188:52 *1389:A_N 20 
*END

*D_NET *189 0.0010741
*CONN
*I *1391:B1 I *D sg13cmos5l_a22oi_1
*I *1380:Y O *D sg13cmos5l_nor2_1
*CAP
1 *1391:B1 3.51052e-05
2 *1380:Y 0.00011577
3 *189:8 0.000150875
4 *1391:B1 *1398:A2 1.54008e-05
5 *189:8 *1240:A 0.000288087
6 *189:8 *666:32 0.00012816
7 *1391:B2 *189:8 0.000212456
8 *87:16 *189:8 0.000128248
*RES
1 *1380:Y *189:8 42.0806 
2 *189:8 *1391:B1 40.3193 
*END

*D_NET *190 0.00641793
*CONN
*I *1390:A1 I *D sg13cmos5l_o21ai_1
*I *1455:A1 I *D sg13cmos5l_o21ai_1
*I *1381:Y O *D sg13cmos5l_nor2_1
*CAP
1 *1390:A1 0
2 *1455:A1 0
3 *1381:Y 0.000851386
4 *190:33 0.000380213
5 *190:20 0.000490753
6 *190:16 0.000521388
7 *190:8 0.00126223
8 *190:8 *1314:B 0.000240328
9 *190:8 *1381:A 0.000112404
10 *190:8 *1387:A2 0
11 *190:8 *687:10 0.000176274
12 *190:16 *231:65 0
13 *190:16 *262:20 0.00023541
14 *190:16 *667:20 0
15 *190:20 *197:8 0.00014407
16 *190:33 *1390:B1 1.54008e-05
17 *190:33 *1390:A2 6.48152e-05
18 *190:33 *197:8 1.54008e-05
19 *190:33 *198:8 0
20 *1317:B *190:8 0
21 *135:10 *190:8 7.92311e-05
22 *135:16 *190:16 0.000538597
23 *136:25 *190:8 0
24 *160:18 *190:16 2.21849e-05
25 *182:10 *190:33 0
26 *182:18 *190:16 7.38006e-05
27 *182:34 *190:16 0.000145667
28 *182:40 *190:8 0.00104837
*RES
1 *1381:Y *190:8 48.755 
2 *190:8 *190:16 45.15 
3 *190:16 *190:20 20.9682 
4 *190:20 *1455:A1 20 
5 *190:20 *190:33 43.1106 
6 *190:33 *1390:A1 20 
*END

*D_NET *191 0.00921988
*CONN
*I *1418:A2 I *D sg13cmos5l_a22oi_1
*I *1387:A2 I *D sg13cmos5l_a21oi_1
*I *1383:B I *D sg13cmos5l_nand2_1
*I *1382:Y O *D sg13cmos5l_nand3_1
*CAP
1 *1418:A2 0
2 *1387:A2 0.000255394
3 *1383:B 0.0010525
4 *1382:Y 0.000634364
5 *191:20 0.00171699
6 *191:14 0.000580993
7 *191:12 0.000806256
8 *1383:B *1487:A 0
9 *1383:B *1802:RESET_B 0.000339043
10 *1383:B *192:12 0.000273562
11 *1383:B *192:20 0.000952387
12 *1383:B *295:10 0
13 *1387:A2 *1388:B1 8.0194e-05
14 *1387:A2 *192:20 0.000110936
15 *191:12 *1356:A 0
16 *191:12 *229:8 0
17 *191:12 *565:10 0.000234224
18 *191:12 *565:12 0.000820429
19 *191:12 *565:18 0.000448057
20 *191:12 *656:26 0
21 *191:12 *659:16 0
22 *191:12 *668:78 0
23 *191:14 *626:12 0
24 *191:14 *659:16 0
25 *191:20 *1313:A 7.53765e-05
26 *191:20 *626:12 0.000393771
27 *1383:A *1383:B 0
28 *1387:A1 *1387:A2 0
29 *1487:B *1383:B 1.54556e-05
30 *90:12 *191:20 0
31 *90:37 *191:20 0
32 *135:10 *1387:A2 4.75212e-05
33 *136:46 *191:14 0.000239054
34 *136:46 *191:20 0
35 *162:35 *191:12 0
36 *172:54 *191:12 0
37 *182:40 *1383:B 0.000143368
38 *190:8 *1387:A2 0
*RES
1 *1382:Y *191:12 48.3436 
2 *191:12 *191:14 1.8334 
3 *191:14 *191:20 24.1303 
4 *191:20 *1383:B 30.6399 
5 *191:20 *1387:A2 22.5029 
6 *191:14 *1418:A2 40 
*END

*D_NET *192 0.00542012
*CONN
*I *1388:B1 I *D sg13cmos5l_a221oi_1
*I *1383:Y O *D sg13cmos5l_nand2_1
*CAP
1 *1388:B1 0.000344766
2 *1383:Y 0.000283268
3 *192:20 0.00124541
4 *192:12 0.00118391
5 *1388:B1 *1317:A 0
6 *1388:B1 *1388:B2 0
7 *1388:B1 *1388:C1 0
8 *1388:B1 *262:10 0
9 *1388:B1 *659:14 0
10 *192:20 *1313:B_N 0.000563151
11 *192:20 *295:10 4.77699e-05
12 *192:20 *659:14 0
13 *1317:B *1388:B1 0
14 *1383:A *192:12 0
15 *1383:B *192:12 0.000273562
16 *1383:B *192:20 0.000952387
17 *1387:A1 *192:20 0.000143369
18 *1387:A2 *1388:B1 8.0194e-05
19 *1387:A2 *192:20 0.000110936
20 *1802:D *192:20 0
21 *89:29 *192:20 0.000128186
22 *136:25 *192:12 0
23 *182:34 *1388:B1 1.54556e-05
24 *182:40 *192:12 4.77534e-05
*RES
1 *1383:Y *192:12 42.781 
2 *192:12 *192:20 49.5687 
3 *192:20 *1388:B1 43.1518 
*END

*D_NET *193 0.0204841
*CONN
*I *1386:A1 I *D sg13cmos5l_mux2_1
*I *1422:B1 I *D sg13cmos5l_a21o_1
*I *1418:B1 I *D sg13cmos5l_a22oi_1
*I *1385:B I *D sg13cmos5l_and2_1
*I *1493:A I *D sg13cmos5l_xor2_1
*I *1384:Y O *D sg13cmos5l_xnor2_1
*CAP
1 *1386:A1 0.00066252
2 *1422:B1 0
3 *1418:B1 0.00037956
4 *1385:B 0.000135044
5 *1493:A 0.000216223
6 *1384:Y 0.000833001
7 *193:58 0.00105529
8 *193:48 0.00101446
9 *193:44 0.00109386
10 *193:33 0.00149033
11 *193:22 0.00119983
12 *193:12 0.00307929
13 *1385:B *663:28 0
14 *1386:A1 *237:8 0
15 *1386:A1 *273:20 1.54008e-05
16 *1386:A1 *290:14 1.54008e-05
17 *1386:A1 *544:128 0
18 *1386:A1 *626:37 0.000862539
19 *1386:A1 *636:45 0.000183956
20 *1386:A1 *638:27 0.000340368
21 *1386:A1 *641:28 0.000111657
22 *1418:B1 *641:28 0
23 *1493:A *660:62 1.54008e-05
24 *1493:A *674:26 0
25 *1493:A *674:98 0
26 *193:12 *1741:A 0
27 *193:12 *1826:CLK 0
28 *193:12 *1858:A 0
29 *193:12 *665:69 8.0194e-05
30 *193:12 *676:67 0.000404362
31 *193:12 *776:48 0
32 *193:22 *1741:A 0
33 *193:22 *564:12 0
34 *193:22 *564:18 0
35 *193:22 *636:33 0
36 *193:22 *655:126 0
37 *193:22 *674:113 0
38 *193:33 *1447:A 0.00093456
39 *193:33 *544:106 0
40 *193:33 *544:128 0
41 *193:33 *564:12 0
42 *193:33 *626:37 2.19989e-05
43 *193:33 *658:35 0.000159096
44 *193:33 *660:48 0.00311359
45 *193:33 *663:28 0
46 *193:44 *238:12 0
47 *193:44 *626:37 0.000371454
48 *193:48 *1427:C 0
49 *193:48 *231:10 0
50 *193:58 *1356:B 0.000143962
51 *193:58 *1421:C 0.000500885
52 *193:58 *196:12 0.000606842
53 *193:58 *227:10 0.000234472
54 *193:58 *230:10 0
55 *193:58 *636:33 0
56 *193:58 *659:16 0
57 *193:58 *761:8 0
58 *1373:B *1386:A1 0
59 *1386:A0 *1386:A1 1.54008e-05
60 *1418:B2 *1418:B1 1.58149e-05
61 *1422:A1 *193:58 0.000112426
62 *1430:A1 *193:48 0.00017634
63 *1738:A *193:22 7.51285e-05
64 *1975:A *193:22 0
65 *4:38 *1493:A 0
66 *50:14 *193:12 0
67 *50:14 *193:22 0
68 *70:10 *193:22 0
69 *136:46 *1418:B1 3.16651e-05
70 *160:10 *193:58 0
71 *160:77 *193:48 0
72 *163:64 *193:33 0
73 *165:16 *1385:B 8.01938e-05
74 *165:16 *193:58 0
75 *165:36 *193:58 0.000183564
76 *174:85 *1385:B 0
77 *174:85 *1386:A1 0.000236789
78 *174:85 *193:44 0.000234224
79 *182:10 *1386:A1 4.69735e-05
*RES
1 *1384:Y *193:12 47.9413 
2 *193:12 *193:22 47.6727 
3 *193:22 *1493:A 41.8334 
4 *193:12 *193:33 16.9126 
5 *193:33 *1385:B 41.1845 
6 *193:33 *193:44 1.8334 
7 *193:44 *193:48 22.9149 
8 *193:48 *193:58 48.4975 
9 *193:58 *1418:B1 23.296 
10 *193:48 *1422:B1 20 
11 *193:44 *1386:A1 48.6623 
*END

*D_NET *194 0.0014249
*CONN
*I *1417:A1 I *D sg13cmos5l_o21ai_1
*I *1431:B I *D sg13cmos5l_nor3_1
*I *1385:X O *D sg13cmos5l_and2_1
*CAP
1 *1417:A1 0.000275013
2 *1431:B 0
3 *1385:X 0.000213149
4 *194:8 0.000488162
5 *1417:A1 *1417:B1 0
6 *1417:A1 *637:84 0
7 *1417:A1 *637:98 0.00027326
8 *194:8 *1432:B1 0
9 *194:8 *637:98 1.54008e-05
10 *194:8 *637:106 0.000112048
11 *87:16 *194:8 0
12 *160:77 *194:8 4.78688e-05
13 *165:16 *1417:A1 0
14 *165:16 *194:8 0
*RES
1 *1385:X *194:8 21.9982 
2 *194:8 *1431:B 20 
3 *194:8 *1417:A1 22.6162 
*END

*D_NET *195 0.00156889
*CONN
*I *1388:B2 I *D sg13cmos5l_a221oi_1
*I *1386:X O *D sg13cmos5l_mux2_1
*CAP
1 *1388:B2 7.40328e-05
2 *1386:X 0.000582018
3 *195:10 0.000656051
4 *1388:B2 *1388:C1 0.000112766
5 *195:10 *196:12 0
6 *195:10 *232:8 0
7 *195:10 *290:14 0
8 *195:10 *659:14 0
9 *195:10 *668:64 0
10 *1388:B1 *1388:B2 0
11 *1418:B2 *195:10 0
12 *1482:B *195:10 0.000144018
*RES
1 *1386:X *195:10 45.0109 
2 *195:10 *1388:B2 40.7519 
*END

*D_NET *196 0.00561801
*CONN
*I *1388:C1 I *D sg13cmos5l_a221oi_1
*I *1421:A I *D sg13cmos5l_nor4_1
*I *1419:A I *D sg13cmos5l_or2_1
*I *1387:Y O *D sg13cmos5l_a21oi_1
*CAP
1 *1388:C1 0.000164355
2 *1421:A 0.000154884
3 *1419:A 0
4 *1387:Y 4.3124e-05
5 *196:24 0.000858931
6 *196:12 0.00162365
7 *196:6 0.000817316
8 *1421:A *1421:C 0
9 *1421:A *1855:A 0
10 *1421:A *544:140 0
11 *1421:A *637:114 0.000112486
12 *196:12 *232:8 0
13 *196:12 *659:14 0
14 *196:12 *659:16 0
15 *196:24 *1419:B 4.77863e-05
16 *196:24 *1421:C 8.00715e-05
17 *196:24 *1855:A 0
18 *196:24 *229:12 0
19 *196:24 *558:23 7.52149e-05
20 *196:24 *565:34 0
21 *196:24 *626:12 0.000371746
22 *196:24 *641:28 4.77863e-05
23 *196:24 *668:87 0
24 *196:24 *678:49 0
25 *196:24 *762:16 0
26 *1388:B2 *1388:C1 0.000112766
27 *1388:B1 *1388:C1 0
28 *160:10 *196:12 0
29 *161:23 *196:24 0.000501045
30 *193:58 *196:12 0.000606842
31 *195:10 *196:12 0
*RES
1 *1387:Y *196:6 20.3193 
2 *196:6 *196:12 46.7774 
3 *196:12 *196:24 49.373 
4 *196:24 *1419:A 20 
5 *196:12 *1421:A 21.4008 
6 *196:6 *1388:C1 21.4008 
*END

*D_NET *197 0.00143131
*CONN
*I *1390:A2 I *D sg13cmos5l_o21ai_1
*I *1455:A2 I *D sg13cmos5l_o21ai_1
*I *1388:Y O *D sg13cmos5l_a221oi_1
*CAP
1 *1390:A2 0.00025431
2 *1455:A2 0
3 *1388:Y 0.000173206
4 *197:8 0.000427516
5 *1390:A2 *1390:B1 1.54008e-05
6 *1390:A2 *1458:B1 0.000208834
7 *1390:A2 *231:75 0
8 *1390:A2 *262:20 1.54008e-05
9 *197:8 *262:20 0.00011236
10 *190:20 *197:8 0.00014407
11 *190:33 *1390:A2 6.48152e-05
12 *190:33 *197:8 1.54008e-05
*RES
1 *1388:Y *197:8 21.751 
2 *197:8 *1455:A2 20 
3 *197:8 *1390:A2 22.7192 
*END

*D_NET *198 0.000528594
*CONN
*I *1390:B1 I *D sg13cmos5l_o21ai_1
*I *1389:Y O *D sg13cmos5l_nand2b_1
*CAP
1 *1390:B1 5.27682e-05
2 *1389:Y 8.65515e-05
3 *198:8 0.00013932
4 *1390:B1 *199:16 1.54446e-05
5 *198:8 *199:16 7.54613e-05
6 *198:8 *231:75 0.000128247
7 *1390:A2 *1390:B1 1.54008e-05
8 *182:10 *198:8 0
9 *190:33 *1390:B1 1.54008e-05
10 *190:33 *198:8 0
*RES
1 *1389:Y *198:8 41.0918 
2 *198:8 *1390:B1 40.5356 
*END

*D_NET *199 0.00488119
*CONN
*I *1398:A1 I *D sg13cmos5l_a21o_1
*I *1390:Y O *D sg13cmos5l_o21ai_1
*CAP
1 *1398:A1 6.4395e-05
2 *1390:Y 0.000221802
3 *199:24 0.000644282
4 *199:16 0.000801689
5 *199:16 *1451:B 0
6 *199:16 *275:10 7.65602e-05
7 *199:24 *1396:B1 0.000553748
8 *199:24 *1397:A 0.000234311
9 *199:24 *1457:A 0.00101197
10 *199:24 *1458:B1 0
11 *199:24 *1458:A1 4.77425e-05
12 *199:24 *1458:A2 0.000144691
13 *199:24 *735:14 0.000714298
14 *1390:B1 *199:16 1.54446e-05
15 *160:28 *199:24 0.000274797
16 *198:8 *199:16 7.54613e-05
*RES
1 *1390:Y *199:16 42.7707 
2 *199:16 *199:24 49.1361 
3 *199:24 *1398:A1 40.5356 
*END

*D_NET *200 0.00128209
*CONN
*I *1398:A2 I *D sg13cmos5l_a21o_1
*I *1391:Y O *D sg13cmos5l_a22oi_1
*CAP
1 *1398:A2 0.000378545
2 *1391:Y 0.000378545
3 *1398:A2 *641:48 0.00034903
4 *1398:A2 *668:103 0.000112826
5 *1391:B1 *1398:A2 1.54008e-05
6 *1391:B2 *1398:A2 4.77425e-05
7 *173:20 *1398:A2 0
*RES
1 *1391:Y *1398:A2 43.9295 
*END

*D_NET *201 0.00387768
*CONN
*I *1457:A I *D sg13cmos5l_nor2_1
*I *1397:A I *D sg13cmos5l_nand3_1
*I *1392:Y O *D sg13cmos5l_nand2_1
*CAP
1 *1457:A 0.000574064
2 *1397:A 0.000215424
3 *1392:Y 0
4 *201:6 0.000789487
5 *1397:A *1396:B1 0
6 *1397:A *1397:C 0
7 *1457:A *1458:B2 0.000112394
8 *1457:A *1458:C1 0
9 *1457:A *1458:B1 0.000241891
10 *1457:A *666:62 0
11 *1457:A *666:79 0
12 *1375:B *1457:A 0.000106807
13 *1396:A1 *1397:A 1.54008e-05
14 *135:20 *1457:A 0
15 *173:20 *1397:A 0
16 *183:10 *1397:A 0.000500302
17 *183:10 *1457:A 7.56308e-05
18 *199:24 *1397:A 0.000234311
19 *199:24 *1457:A 0.00101197
*RES
1 *1392:Y *201:6 40 
2 *201:6 *1397:A 42.9973 
3 *201:6 *1457:A 47.1585 
*END

*D_NET *202 0.0213415
*CONN
*I *1491:A1 I *D sg13cmos5l_o21ai_1
*I *1438:B I *D sg13cmos5l_nand2_1
*I *1529:A2 I *D sg13cmos5l_o21ai_1
*I *1394:B I *D sg13cmos5l_nor2_1
*I *1532:A2 I *D sg13cmos5l_o21ai_1
*I *1395:B I *D sg13cmos5l_or2_1
*I *1535:C I *D sg13cmos5l_or4_1
*I *1393:Y O *D sg13cmos5l_nand3b_1
*CAP
1 *1491:A1 0
2 *1438:B 0
3 *1529:A2 2.34021e-05
4 *1394:B 0
5 *1532:A2 0
6 *1395:B 0
7 *1535:C 0
8 *1393:Y 0.000437582
9 *202:103 0.000651285
10 *202:95 0.00129384
11 *202:85 0.00133116
12 *202:67 0.00064174
13 *202:52 0.000744307
14 *202:44 0.000358961
15 *202:33 0.000157082
16 *202:23 0.000407987
17 *202:16 0.00183397
18 *202:10 0.00294225
19 *1529:A2 *1529:B1 1.54008e-05
20 *1529:A2 *660:118 4.77425e-05
21 *202:10 *209:24 0.000651051
22 *202:10 *565:18 0
23 *202:10 *659:26 0
24 *202:10 *765:31 0
25 *202:16 *258:52 0
26 *202:16 *258:62 0
27 *202:16 *305:28 0.00317194
28 *202:16 *548:19 0
29 *202:16 *548:33 0
30 *202:16 *554:10 0
31 *202:16 *565:18 0
32 *202:16 *612:25 0.000557251
33 *202:16 *655:134 0.000441956
34 *202:16 *765:13 0
35 *202:33 *1395:A 1.54556e-05
36 *202:33 *1502:B1 0
37 *202:33 *305:28 2.14475e-05
38 *202:33 *337:28 0.00034339
39 *202:33 *660:75 0.000107001
40 *202:33 *660:77 0.000237919
41 *202:44 *338:10 0
42 *202:44 *660:118 0.000265897
43 *202:52 *1502:B1 0
44 *202:52 *1564:A2 0
45 *202:52 *655:26 0.000289473
46 *202:52 *655:126 2.25909e-05
47 *202:52 *660:124 0.00023464
48 *202:67 *1502:B1 0
49 *202:67 *1564:A2 0
50 *202:67 *308:93 0
51 *202:67 *372:132 0
52 *202:67 *521:36 4.78521e-05
53 *202:67 *635:8 0
54 *202:67 *636:33 0
55 *202:67 *700:10 0.0010349
56 *202:67 *720:8 0.000609511
57 *202:67 *720:14 0.000394839
58 *202:85 *1491:A2 1.54008e-05
59 *202:85 *1804:RESET_B 0
60 *202:85 *543:10 0
61 *202:85 *565:18 0
62 *202:85 *678:53 0
63 *202:95 *1491:A2 0.000208615
64 *202:95 *1805:RESET_B 0
65 *202:95 *294:10 7.5374e-05
66 *202:95 *298:18 0.000338048
67 *202:95 *558:8 0
68 *202:95 *558:23 0.000449507
69 *202:103 *1489:A1 0
70 *202:103 *1489:A2 0.00017656
71 *202:103 *641:28 0
72 *202:103 *763:18 0.000664096
73 *1231:A *202:52 0
74 *1535:B *202:16 6.39133e-05
75 *1535:B *202:23 1.61708e-05
76 *32:10 *202:103 0
77 *171:61 *202:103 0
78 *172:54 *202:85 0
*RES
1 *1393:Y *202:10 44.5629 
2 *202:10 *202:16 41.7279 
3 *202:16 *1535:C 20 
4 *202:16 *202:23 0.21115 
5 *202:23 *202:33 42.472 
6 *202:33 *1395:B 20 
7 *202:23 *202:44 2.3175 
8 *202:44 *202:52 41.6583 
9 *202:52 *1532:A2 20 
10 *202:52 *202:67 48.5902 
11 *202:67 *1394:B 20 
12 *202:44 *1529:A2 20.3193 
13 *202:10 *202:85 26.2006 
14 *202:85 *202:95 46.8289 
15 *202:95 *202:103 46.9731 
16 *202:103 *1438:B 20 
17 *202:85 *1491:A1 20 
*END

*D_NET *203 0.0161504
*CONN
*I *1442:B I *D sg13cmos5l_nor3_1
*I *1475:B I *D sg13cmos5l_nor2_1
*I *1871:A I *D sg13cmos5l_buf_1
*I *1394:Y O *D sg13cmos5l_nor2_1
*CAP
1 *1442:B 0.000642313
2 *1475:B 0
3 *1871:A 3.42421e-05
4 *1394:Y 0
5 *203:61 8.85236e-05
6 *203:51 0.000438734
7 *203:43 0.00117076
8 *203:41 0.00297051
9 *203:33 0.00354326
10 *203:18 0.000679547
11 *203:6 0.0013963
12 *1442:B *1443:A_N 0
13 *1442:B *211:8 0.000434284
14 *1442:B *211:19 1.54008e-05
15 *1442:B *660:20 0.000127886
16 *203:18 *308:93 0
17 *203:18 *372:10 0
18 *203:18 *409:12 0
19 *203:18 *416:34 0.00045176
20 *203:18 *571:39 0
21 *203:18 *573:65 7.52149e-05
22 *203:18 *637:29 0.00037374
23 *203:18 *672:22 0.00023615
24 *203:18 *672:105 0
25 *203:33 *312:37 0
26 *203:33 *672:105 0
27 *203:33 *672:126 0
28 *203:41 *1734:B 0
29 *203:41 *1747:A 0
30 *203:41 *1751:B 0
31 *203:41 *523:27 0
32 *203:41 *524:47 0.000556527
33 *203:41 *531:8 0
34 *203:41 *538:8 0.000184999
35 *203:41 *538:16 0.000129592
36 *203:41 *624:12 0
37 *203:41 *638:98 0
38 *203:41 *663:59 0
39 *203:41 *663:65 0
40 *203:41 *665:38 0.000607486
41 *203:41 *677:81 0
42 *203:41 *677:87 0
43 *203:41 *712:48 0.000609895
44 *203:41 *776:48 0
45 *203:43 *658:8 0.000241727
46 *203:43 *660:20 4.78359e-05
47 *203:51 *283:20 0
48 *203:61 *1443:A_N 0
49 *203:61 *217:12 0.000129592
50 *203:61 *285:24 0.000129592
51 *1408:A *203:51 0.000287389
52 *1890:A *203:41 0
53 *1890:A *203:43 0.00023671
54 *135:52 *203:41 0
55 *135:74 *203:61 2.18115e-05
56 *163:29 *203:51 0.000288588
57 *183:8 *203:43 0
*RES
1 *1394:Y *203:6 40 
2 *203:6 *203:18 46.9628 
3 *203:18 *1871:A 40.3193 
4 *203:6 *203:33 47.6735 
5 *203:33 *203:41 49.6949 
6 *203:41 *203:43 2.0497 
7 *203:43 *203:51 44.4702 
8 *203:51 *203:61 41.2669 
9 *203:61 *1475:B 20 
10 *203:43 *1442:B 25.9637 
*END

*D_NET *204 0.00124092
*CONN
*I *1870:A I *D sg13cmos5l_buf_1
*I *1395:X O *D sg13cmos5l_or2_1
*CAP
1 *1870:A 3.04198e-05
2 *1395:X 0.000119401
3 *204:8 0.00014982
4 *1870:A *636:20 4.77425e-05
5 *204:8 *337:28 0.000288838
6 *204:8 *612:35 0.000291632
7 *204:8 *637:151 0.000131027
8 *86:14 *204:8 0.000182045
*RES
1 *1395:X *204:8 42.3278 
2 *204:8 *1870:A 40.3193 
*END

*D_NET *205 0.00119149
*CONN
*I *1397:C I *D sg13cmos5l_nand3_1
*I *1396:Y O *D sg13cmos5l_o21ai_1
*CAP
1 *1397:C 0.000357704
2 *1396:Y 0.000357704
3 *1397:C *1396:B1 1.54008e-05
4 *1397:C *1397:B 0.000112426
5 *1380:A *1397:C 0
6 *1396:A1 *1397:C 0
7 *1397:A *1397:C 0
8 *170:70 *1397:C 0.000112558
9 *173:20 *1397:C 0.000155612
10 *175:22 *1397:C 8.00842e-05
*RES
1 *1396:Y *1397:C 44.1406 
*END

*D_NET *206 0.000497245
*CONN
*I *1398:B1 I *D sg13cmos5l_a21o_1
*I *1397:Y O *D sg13cmos5l_nand3_1
*CAP
1 *1398:B1 7.86467e-05
2 *1397:Y 0.000129934
3 *206:8 0.000208581
4 *206:8 *247:22 0
5 *173:20 *1398:B1 8.00842e-05
6 *183:10 *206:8 0
*RES
1 *1397:Y *206:8 41.0918 
2 *206:8 *1398:B1 40.8858 
*END

*D_NET *207 0.000618163
*CONN
*I *1399:A2 I *D sg13cmos5l_a21oi_1
*I *1398:X O *D sg13cmos5l_a21o_1
*CAP
1 *1399:A2 0.0001483
2 *1398:X 0.0001483
3 *1399:A1 *1399:A2 8.0194e-05
4 *173:20 *1399:A2 0.000241368
5 *175:22 *1399:A2 0
*RES
1 *1398:X *1399:A2 41.6171 
*END

*D_NET *208 0.0044044
*CONN
*I *1406:A1 I *D sg13cmos5l_o21ai_1
*I *1399:Y O *D sg13cmos5l_a21oi_1
*CAP
1 *1406:A1 4.66635e-05
2 *1399:Y 0.00045831
3 *208:8 0.000504974
4 *1406:A1 *1892:A 4.77425e-05
5 *1406:A1 *214:30 8.00842e-05
6 *208:8 *214:30 0.0015153
7 *208:8 *249:8 0.00119878
8 *208:8 *283:30 0.000552549
9 *135:36 *208:8 0
10 *179:26 *208:8 0
*RES
1 *1399:Y *208:8 48.755 
2 *208:8 *1406:A1 40.5356 
*END

*D_NET *209 0.0171785
*CONN
*I *1434:A2 I *D sg13cmos5l_a21oi_1
*I *1480:B1 I *D sg13cmos5l_a22oi_1
*I *1488:B1 I *D sg13cmos5l_a22oi_1
*I *1484:B1 I *D sg13cmos5l_a221oi_1
*I *1400:Y O *D sg13cmos5l_nor2_1
*CAP
1 *1434:A2 0.000423635
2 *1480:B1 0
3 *1488:B1 0
4 *1484:B1 0
5 *1400:Y 0.000189035
6 *209:58 0.000338208
7 *209:43 0.000603444
8 *209:32 0.000989078
9 *209:26 0.00125431
10 *209:24 0.00229899
11 *209:8 0.00291166
12 *1434:A2 *1434:A1 6.48152e-05
13 *1434:A2 *638:75 4.77425e-05
14 *1434:A2 *638:83 0.000343064
15 *1434:A2 *660:20 0
16 *1434:A2 *663:14 4.78743e-05
17 *1434:A2 *663:46 0
18 *1434:A2 *664:111 0.000183564
19 *209:8 *256:10 0
20 *209:8 *661:32 0
21 *209:8 *663:46 0
22 *209:24 *1372:B 0
23 *209:24 *1379:B2 0
24 *209:24 *1393:A_N 0
25 *209:24 *1486:S 0.000208878
26 *209:24 *1838:A 0
27 *209:24 *1845:A 0
28 *209:24 *549:19 0
29 *209:24 *555:8 0.00030663
30 *209:24 *638:61 4.77425e-05
31 *209:24 *657:41 8.00842e-05
32 *209:24 *658:41 0
33 *209:24 *659:26 0.000143938
34 *209:24 *659:41 0.000305088
35 *209:24 *660:20 0
36 *209:24 *661:32 0.000144768
37 *209:24 *661:34 6.00631e-05
38 *209:24 *663:28 0
39 *209:24 *664:12 0
40 *209:24 *770:42 0
41 *209:32 *1483:B1 0.000769354
42 *209:32 *1484:C1 0
43 *209:32 *1836:A 0
44 *209:32 *292:10 0
45 *209:32 *555:14 8.01938e-05
46 *209:32 *658:95 0.00140766
47 *209:32 *674:60 0
48 *209:32 *772:20 0.000241166
49 *209:32 *773:10 0.000717275
50 *209:43 *1488:A1 8.0216e-05
51 *209:43 *298:18 0
52 *209:43 *658:95 0.00079797
53 *209:43 *771:38 0
54 *209:43 *773:10 0.000503098
55 *209:43 *773:25 0.000318191
56 *209:58 *1480:A1 0.000111839
57 *209:58 *1488:B2 0
58 *209:58 *1488:A1 3.23417e-05
59 *209:58 *288:8 0.000144181
60 *209:58 *288:18 0
61 *209:58 *552:12 0
62 *209:58 *771:38 0
63 *209:58 *772:48 0.000236596
64 *1483:A1 *209:32 7.97166e-05
65 *1890:A *209:24 0
66 *28:8 *209:32 0
67 *170:18 *209:24 0
68 *171:14 *209:24 1.51e-05
69 *174:31 *209:24 0
70 *180:12 *209:24 0
71 *181:6 *209:24 0
72 *202:10 *209:24 0.000651051
*RES
1 *1400:Y *209:8 41.5862 
2 *209:8 *209:24 41.3622 
3 *209:24 *209:26 20 
4 *209:26 *209:32 32.9059 
5 *209:32 *1484:B1 20 
6 *209:26 *209:43 24.7792 
7 *209:43 *1488:B1 20 
8 *209:43 *209:58 43.4608 
9 *209:58 *1480:B1 20 
10 *209:8 *1434:A2 44.3157 
*END

*D_NET *210 0.000451393
*CONN
*I *1402:A1 I *D sg13cmos5l_mux2_1
*I *1401:X O *D sg13cmos5l_or2_1
*CAP
1 *1402:A1 0.000210296
2 *1401:X 0.000210296
3 *1402:A1 *1446:B 0
4 *1402:A1 *215:10 0
5 *1402:A1 *638:98 1.54008e-05
6 *1402:A0 *1402:A1 1.54008e-05
7 *1955:A *1402:A1 0
*RES
1 *1401:X *1402:A1 42.369 
*END

*D_NET *211 0.00504349
*CONN
*I *1405:A2 I *D sg13cmos5l_o21ai_1
*I *1404:A2 I *D sg13cmos5l_a21oi_1
*I *1407:A2 I *D sg13cmos5l_o21ai_1
*I *1442:C I *D sg13cmos5l_nor3_1
*I *1402:X O *D sg13cmos5l_mux2_1
*CAP
1 *1405:A2 0.000115356
2 *1404:A2 2.60157e-05
3 *1407:A2 0.000211237
4 *1442:C 0
5 *1402:X 0.000629704
6 *211:34 0.000336947
7 *211:19 0.000735987
8 *211:8 0.000958878
9 *1404:A2 *1404:A1 1.54008e-05
10 *1404:A2 *740:28 1.54008e-05
11 *1405:A2 *1405:B1 4.78195e-05
12 *1405:A2 *739:59 0
13 *1405:A2 *740:28 7.52158e-05
14 *1407:A2 *1443:A_N 0
15 *1407:A2 *216:8 0.000143358
16 *1407:A2 *637:45 0
17 *1407:A2 *739:76 0
18 *211:8 *1446:B 0
19 *211:8 *1892:A 0
20 *211:8 *219:10 0.00017696
21 *211:8 *660:20 0.000165517
22 *211:19 *739:76 0
23 *211:19 *740:28 0.000212704
24 *211:19 *740:30 0.000128248
25 *211:34 *740:28 0.000503416
26 *1403:B *211:19 4.78192e-05
27 *1413:A2 *211:8 0
28 *1413:A2 *211:19 0
29 *1442:B *211:8 0.000434284
30 *1442:B *211:19 1.54008e-05
31 *155:42 *1407:A2 4.78192e-05
*RES
1 *1402:X *211:8 25.8607 
2 *211:8 *1442:C 20 
3 *211:8 *211:19 23.2033 
4 *211:19 *1407:A2 42.0162 
5 *211:19 *211:34 2.3278 
6 *211:34 *1404:A2 40.3193 
7 *211:34 *1405:A2 41.1639 
*END

*D_NET *212 0.00104493
*CONN
*I *1404:B1 I *D sg13cmos5l_a21oi_1
*I *1403:Y O *D sg13cmos5l_xnor2_1
*CAP
1 *1404:B1 3.04775e-05
2 *1403:Y 7.48926e-05
3 *212:8 0.00010537
4 *1404:B1 *1344:A 4.35073e-05
5 *212:8 *739:76 0.000394576
6 *212:8 *740:28 0.000396106
*RES
1 *1403:Y *212:8 41.8334 
2 *212:8 *1404:B1 40.291 
*END

*D_NET *213 0.000636286
*CONN
*I *1405:B1 I *D sg13cmos5l_o21ai_1
*I *1404:Y O *D sg13cmos5l_a21oi_1
*CAP
1 *1405:B1 0.000294233
2 *1404:Y 0.000294233
3 *1405:B1 *1476:B 0
4 *1405:B1 *637:45 0
5 *1405:A2 *1405:B1 4.78195e-05
*RES
1 *1404:Y *1405:B1 42.6368 
*END

*D_NET *214 0.00664788
*CONN
*I *1473:B I *D sg13cmos5l_or3_1
*I *1450:A I *D sg13cmos5l_nor2_1
*I *1406:A2 I *D sg13cmos5l_o21ai_1
*I *1405:Y O *D sg13cmos5l_o21ai_1
*CAP
1 *1473:B 0
2 *1450:A 0
3 *1406:A2 0
4 *1405:Y 0.000156089
5 *214:30 0.000455214
6 *214:20 0.000865827
7 *214:12 0.000613655
8 *214:8 0.00035913
9 *214:8 *641:60 0
10 *214:12 *223:6 0
11 *214:12 *223:14 1.54008e-05
12 *214:12 *270:41 4.78192e-05
13 *214:12 *285:10 0
14 *214:20 *1436:A 0
15 *214:20 *1441:A 0.000208063
16 *214:20 *1448:B 0
17 *214:20 *1461:B1 0
18 *214:20 *223:14 0.000240537
19 *214:20 *270:6 6.46834e-05
20 *214:20 *270:14 0.000111016
21 *1406:B1 *214:30 0.000112558
22 *1406:A1 *214:30 8.00842e-05
23 *1448:A *214:20 0
24 *1473:A *214:20 0.000208195
25 *135:36 *214:30 0.000827419
26 *135:42 *214:30 0.00076689
27 *175:22 *214:20 0
28 *175:43 *214:20 0
29 *208:8 *214:30 0.0015153
*RES
1 *1405:Y *214:8 41.339 
2 *214:8 *214:12 21.6171 
3 *214:12 *214:20 4.7998 
4 *214:20 *214:30 48.7756 
5 *214:30 *1406:A2 20 
6 *214:20 *1450:A 20 
7 *214:12 *1473:B 20 
*END

*D_NET *215 0.000711818
*CONN
*I *1446:A I *D sg13cmos5l_nand3_1
*I *1406:Y O *D sg13cmos5l_o21ai_1
*CAP
1 *1446:A 5.0157e-05
2 *1406:Y 8.39768e-05
3 *215:10 0.000134134
4 *1446:A *1446:B 8.01609e-05
5 *1446:A *618:10 0
6 *1446:A *665:61 0
7 *215:10 *270:14 0.000181695
8 *215:10 *618:10 0.000181695
9 *215:10 *740:57 0
10 *1402:A1 *215:10 0
*RES
1 *1406:Y *215:10 41.442 
2 *215:10 *1446:A 40.5356 
*END

*D_NET *216 0.00348205
*CONN
*I *1443:B I *D sg13cmos5l_nand2b_1
*I *1411:A I *D sg13cmos5l_nor3_1
*I *1407:Y O *D sg13cmos5l_o21ai_1
*CAP
1 *1443:B 0.000217524
2 *1411:A 0.000393789
3 *1407:Y 8.51458e-05
4 *216:14 0.000818971
5 *216:8 0.000292805
6 *1411:A *1474:B1 0.000615027
7 *1411:A *544:188 0
8 *1411:A *740:57 4.67813e-05
9 *1443:B *1443:A_N 0.000112558
10 *1443:B *1474:B1 0.000323569
11 *1443:B *544:188 0
12 *1443:B *637:66 0.000144583
13 *216:8 *739:76 0.000143358
14 *1407:A2 *216:8 0.000143358
15 *155:36 *216:14 0
16 *167:18 *1411:A 0.000144582
17 *167:48 *216:14 0
*RES
1 *1407:Y *216:8 40.9682 
2 *216:8 *216:14 42.266 
3 *216:14 *1411:A 44.223 
4 *216:14 *1443:B 42.5544 
*END

*D_NET *217 0.00482964
*CONN
*I *1410:A I *D sg13cmos5l_or2_1
*I *1411:B I *D sg13cmos5l_nor3_1
*I *1416:B I *D sg13cmos5l_nor4_1
*I *1408:Y O *D sg13cmos5l_nor2_1
*CAP
1 *1410:A 0
2 *1411:B 0
3 *1416:B 0.000197902
4 *1408:Y 0.00055174
5 *217:14 0.000325414
6 *217:12 0.000679253
7 *1416:B *1416:C 0.000342035
8 *1416:B *220:8 0.00037131
9 *1416:B *225:14 0.000553663
10 *1416:B *284:8 0
11 *1416:B *285:24 0
12 *217:12 *1448:B 0.0001122
13 *217:12 *1896:A 0.00017562
14 *217:12 *223:26 0.000451182
15 *217:12 *223:40 0.000447183
16 *217:12 *252:10 0
17 *217:12 *257:14 0.000288758
18 *217:12 *285:24 0
19 *217:14 *220:8 7.55443e-05
20 *217:14 *223:40 0.000128248
21 *217:14 *285:24 0
22 *1408:A *217:12 0
23 *1448:A *217:12 0
24 *203:61 *217:12 0.000129592
*RES
1 *1408:Y *217:12 46.798 
2 *217:12 *217:14 1.339 
3 *217:14 *1416:B 43.5638 
4 *217:14 *1411:B 40 
5 *217:12 *1410:A 40 
*END

*D_NET *218 0.00122774
*CONN
*I *1410:B I *D sg13cmos5l_or2_1
*I *1411:C I *D sg13cmos5l_nor3_1
*I *1409:Y O *D sg13cmos5l_a21oi_1
*CAP
1 *1410:B 8.01891e-05
2 *1411:C 6.07107e-05
3 *1409:Y 2.50753e-05
4 *218:8 0.000165975
5 *1410:B *220:8 0.00010648
6 *1410:B *223:40 0.000129679
7 *1410:B *284:8 0.000343163
8 *1411:C *740:57 6.00631e-05
9 *218:8 *220:8 0.00012816
10 *218:8 *284:8 0.000128247
*RES
1 *1409:Y *218:8 40.5974 
2 *218:8 *1411:C 40.5356 
3 *218:8 *1410:B 41.5862 
*END

*D_NET *219 0.00127693
*CONN
*I *1444:A I *D sg13cmos5l_nor4_1
*I *1410:X O *D sg13cmos5l_or2_1
*CAP
1 *1444:A 8.4922e-05
2 *1410:X 0.000169447
3 *219:10 0.000254369
4 *1444:A *1444:B 1.54008e-05
5 *219:10 *257:16 0.000288571
6 *219:10 *285:24 0.000287256
7 *211:8 *219:10 0.00017696
*RES
1 *1410:X *219:10 42.5235 
2 *219:10 *1444:A 40.7519 
*END

*D_NET *220 0.00301265
*CONN
*I *1462:A2 I *D sg13cmos5l_o21ai_1
*I *1416:C I *D sg13cmos5l_nor4_1
*I *1411:Y O *D sg13cmos5l_nor3_1
*CAP
1 *1462:A2 0.00049448
2 *1416:C 0.000135216
3 *1411:Y 0.000132572
4 *220:8 0.000762269
5 *1416:C *284:8 0
6 *1462:A2 *1856:A 0
7 *1462:A2 *221:16 1.54556e-05
8 *1462:A2 *272:12 0.00034575
9 *1462:A2 *544:174 0
10 *1462:A2 *566:27 0
11 *1409:A1 *1462:A2 0
12 *1410:B *220:8 0.00010648
13 *1416:B *1416:C 0.000342035
14 *1416:B *220:8 0.00037131
15 *1462:A1 *1462:A2 0.000103377
16 *217:14 *220:8 7.55443e-05
17 *218:8 *220:8 0.00012816
*RES
1 *1411:Y *220:8 42.0806 
2 *220:8 *1416:C 41.5862 
3 *220:8 *1462:A2 44.4805 
*END

*D_NET *221 0.00653757
*CONN
*I *1414:A I *D sg13cmos5l_nand2_1
*I *1462:B1 I *D sg13cmos5l_o21ai_1
*I *1412:X O *D sg13cmos5l_or2_1
*CAP
1 *1414:A 0.000221029
2 *1462:B1 0
3 *1412:X 0.000221456
4 *221:33 0.000472788
5 *221:27 0.00114646
6 *221:16 0.000232177
7 *221:8 0.00134833
8 *1414:A *1339:B1 0
9 *1414:A *1342:A1 0
10 *1414:A *1405:A1 0
11 *1414:A *1414:B 0
12 *1414:A *270:41 0
13 *221:8 *1412:A 0
14 *221:8 *740:47 0.000208195
15 *221:8 *740:57 1.54008e-05
16 *221:16 *1343:B 0.000235055
17 *221:16 *566:27 0
18 *221:16 *641:66 0
19 *221:16 *740:30 7.51285e-05
20 *221:27 *1786:RESET_B 0.000127878
21 *221:27 *1787:RESET_B 0.00135337
22 *221:27 *1787:D 0
23 *221:27 *1787:CLK 0.000608855
24 *221:27 *222:14 7.92546e-05
25 *221:27 *637:41 0
26 *221:33 *681:22 0
27 *1340:B1 *1414:A 0
28 *1343:C *221:27 0
29 *1462:A2 *221:16 1.54556e-05
30 *1971:A *221:27 0.000176742
31 *151:32 *221:27 0
32 *151:34 *221:27 0
33 *153:16 *221:33 0
34 *155:36 *221:27 0
*RES
1 *1412:X *221:8 21.9673 
2 *221:8 *221:16 42.3999 
3 *221:16 *1462:B1 20 
4 *221:8 *221:27 31.33 
5 *221:27 *221:33 42.4823 
6 *221:33 *1414:A 41.9029 
*END

*D_NET *222 0.00863306
*CONN
*I *1414:B I *D sg13cmos5l_nand2_1
*I *1415:B_N I *D sg13cmos5l_nor2b_1
*I *1413:Y O *D sg13cmos5l_a21oi_1
*CAP
1 *1414:B 0.000468369
2 *1415:B_N 0.000741734
3 *1413:Y 0.000281286
4 *222:14 0.00149139
5 *1414:B *1339:B1 6.45462e-05
6 *1414:B *270:41 0
7 *1414:B *641:52 8.01938e-05
8 *1414:B *641:60 0.000820974
9 *1414:B *641:66 0.000851712
10 *1414:B *740:18 0.000500182
11 *1415:B_N *1346:A 0.000369903
12 *1415:B_N *566:27 0
13 *1415:B_N *641:66 0.000874343
14 *1415:B_N *703:12 0
15 *222:14 *1412:A 0.000296338
16 *1348:A2 *1415:B_N 0.000181192
17 *1414:A *1414:B 0
18 *1978:A *1415:B_N 5.73968e-05
19 *13:16 *1415:B_N 7.51285e-05
20 *154:10 *1414:B 0.00119582
21 *154:10 *1415:B_N 0.00012816
22 *158:10 *1415:B_N 7.51285e-05
23 *221:27 *222:14 7.92546e-05
*RES
1 *1413:Y *222:14 42.8844 
2 *222:14 *1415:B_N 49.0434 
3 *222:14 *1414:B 49.2288 
*END

*D_NET *223 0.00689961
*CONN
*I *1473:C I *D sg13cmos5l_or3_1
*I *1450:B I *D sg13cmos5l_nor2_1
*I *1444:B I *D sg13cmos5l_nor4_1
*I *1416:D I *D sg13cmos5l_nor4_1
*I *1414:Y O *D sg13cmos5l_nand2_1
*CAP
1 *1473:C 0
2 *1450:B 3.09767e-05
3 *1444:B 2.84713e-05
4 *1416:D 0.000128827
5 *1414:Y 0.000198672
6 *223:66 0.000220424
7 *223:40 0.000771263
8 *223:26 0.00115816
9 *223:14 0.000907971
10 *223:6 0.000429942
11 *1416:D *544:174 0
12 *1416:D *731:30 0
13 *1444:B *1444:C 4.77425e-05
14 *1450:B *1436:A 4.78359e-05
15 *223:6 *641:52 0
16 *223:26 *1439:B2 0
17 *223:26 *252:10 0.000233375
18 *223:26 *257:14 0
19 *223:26 *285:10 0
20 *223:26 *738:26 0
21 *223:40 *1474:B1 0.000448209
22 *223:40 *1507:B 0.000234224
23 *223:40 *284:8 0
24 *223:40 *544:188 0
25 *223:66 *270:35 0
26 *1410:B *223:40 0.000129679
27 *1444:A *1444:B 1.54008e-05
28 *1473:A *223:14 0
29 *1473:A *223:26 0
30 *1473:A *223:66 0
31 *23:8 *223:26 0.000129197
32 *148:14 *223:6 0
33 *175:43 *223:6 1.54008e-05
34 *175:43 *223:14 0.000175721
35 *175:43 *223:66 2.19989e-05
36 *179:16 *223:66 3.26128e-05
37 *179:26 *223:66 0.000210954
38 *214:12 *223:6 0
39 *214:12 *223:14 1.54008e-05
40 *214:20 *223:14 0.000240537
41 *217:12 *223:26 0.000451182
42 *217:12 *223:40 0.000447183
43 *217:14 *223:40 0.000128248
*RES
1 *1414:Y *223:6 21.6171 
2 *223:6 *223:14 22.5029 
3 *223:14 *223:26 45.768 
4 *223:26 *223:40 47.7971 
5 *223:40 *1416:D 40.9682 
6 *223:26 *1444:B 40.3193 
7 *223:14 *223:66 42.1836 
8 *223:66 *1450:B 40.3193 
9 *223:6 *1473:C 20 
*END

*D_NET *224 0.00140884
*CONN
*I *1463:A I *D sg13cmos5l_and2_1
*I *1415:Y O *D sg13cmos5l_nor2b_1
*CAP
1 *1463:A 0.000211098
2 *1415:Y 0.000250289
3 *224:10 0.000461388
4 *1463:A *272:12 0
5 *1463:A *566:27 3.8463e-05
6 *224:10 *1507:B 0
7 *224:10 *595:59 0
8 *224:10 *731:30 0.000447597
*RES
1 *1415:Y *224:10 42.8943 
2 *224:10 *1463:A 41.7366 
*END

*D_NET *225 0.00208512
*CONN
*I *1446:B I *D sg13cmos5l_nand3_1
*I *1416:Y O *D sg13cmos5l_nor4_1
*CAP
1 *1446:B 0.000204585
2 *1416:Y 0.000204095
3 *225:14 0.000408681
4 *1446:B *618:10 0
5 *1446:B *740:57 0
6 *1446:B *740:71 7.98582e-05
7 *225:14 *285:24 0.000554078
8 *225:14 *731:30 0
9 *1402:A1 *1446:B 0
10 *1406:B1 *1446:B 0
11 *1416:B *225:14 0.000553663
12 *1446:A *1446:B 8.01609e-05
13 *211:8 *1446:B 0
*RES
1 *1416:Y *225:14 43.5947 
2 *225:14 *1446:B 41.9673 
*END

*D_NET *226 0.000880959
*CONN
*I *1437:A1 I *D sg13cmos5l_a21oi_1
*I *1417:Y O *D sg13cmos5l_o21ai_1
*CAP
1 *1437:A1 0.000222845
2 *1417:Y 0.000222845
3 *1437:A1 *1437:A2 0.000221858
4 *1437:A1 *637:84 0.000213409
*RES
1 *1417:Y *1437:A1 42.4355 
*END

*D_NET *227 0.00494189
*CONN
*I *1419:B I *D sg13cmos5l_or2_1
*I *1421:C I *D sg13cmos5l_nor4_1
*I *1418:Y O *D sg13cmos5l_a22oi_1
*CAP
1 *1419:B 0.000827621
2 *1421:C 0.000352576
3 *1418:Y 0.000351605
4 *227:10 0.0015318
5 *1419:B *1464:B2 0
6 *1419:B *565:10 0.000209648
7 *1419:B *641:28 0
8 *1419:B *678:49 0
9 *1421:C *229:12 0.000209484
10 *1421:C *229:27 4.77425e-05
11 *1421:C *637:114 8.01445e-05
12 *1421:C *659:16 0
13 *227:10 *1255:A 0.000177297
14 *227:10 *659:16 0
15 *1418:B2 *227:10 0.000290754
16 *1421:A *1421:C 0
17 *25:8 *227:10 0
18 *193:58 *1421:C 0.000500885
19 *193:58 *227:10 0.000234472
20 *196:24 *1419:B 4.77863e-05
21 *196:24 *1421:C 8.00715e-05
*RES
1 *1418:Y *227:10 43.7749 
2 *227:10 *1421:C 43.9449 
3 *227:10 *1419:B 46.9422 
*END

*D_NET *228 0.00217213
*CONN
*I *1464:B2 I *D sg13cmos5l_a221oi_1
*I *1419:X O *D sg13cmos5l_or2_1
*CAP
1 *1464:B2 0.000885436
2 *1419:X 0.000885436
3 *1464:B2 *1464:A2 0
4 *1464:B2 *1792:CLK 0.000112426
5 *1464:B2 *1855:A 0
6 *1464:B2 *229:27 4.77425e-05
7 *1464:B2 *544:140 0
8 *1464:B2 *565:34 0.000241088
9 *1464:B2 *626:12 0
10 *1464:B2 *641:28 0
11 *1464:B2 *678:49 0
12 *1419:B *1464:B2 0
*RES
1 *1419:X *1464:B2 47.8074 
*END

*D_NET *229 0.00261192
*CONN
*I *1464:C1 I *D sg13cmos5l_a221oi_1
*I *1421:D I *D sg13cmos5l_nor4_1
*I *1420:X O *D sg13cmos5l_and2_1
*CAP
1 *1464:C1 0
2 *1421:D 0
3 *1420:X 7.59975e-05
4 *229:27 0.000133609
5 *229:12 0.000351521
6 *229:8 0.000293909
7 *229:8 *659:16 0.000343053
8 *229:8 *668:78 0.000235556
9 *229:12 *230:10 7.91362e-05
10 *229:12 *668:78 0
11 *229:27 *551:12 0.000396877
12 *229:27 *668:78 0
13 *1421:C *229:12 0.000209484
14 *1421:C *229:27 4.77425e-05
15 *1464:B2 *229:27 4.77425e-05
16 *160:10 *229:27 0.000397293
17 *191:12 *229:8 0
18 *196:24 *229:12 0
*RES
1 *1420:X *229:8 41.5862 
2 *229:8 *229:12 22.0497 
3 *229:12 *1421:D 20 
4 *229:12 *229:27 42.472 
5 *229:27 *1464:C1 20 
*END

*D_NET *230 0.00144224
*CONN
*I *1427:A I *D sg13cmos5l_nor3_1
*I *1421:Y O *D sg13cmos5l_nor4_1
*CAP
1 *1427:A 0.000339757
2 *1421:Y 0.000144737
3 *230:10 0.000484495
4 *1427:A *1427:C 0.000112019
5 *1427:A *1428:C 8.00842e-05
6 *1427:A *668:78 0
7 *230:10 *636:33 7.51285e-05
8 *230:10 *668:78 7.91362e-05
9 *1366:A1 *1427:A 0
10 *1366:B1 *1427:A 4.77425e-05
11 *161:29 *230:10 0
12 *172:54 *1427:A 0
13 *193:58 *230:10 0
14 *229:12 *230:10 7.91362e-05
*RES
1 *1421:Y *230:10 41.3802 
2 *230:10 *1427:A 42.9149 
*END

*D_NET *231 0.00900784
*CONN
*I *1466:B I *D sg13cmos5l_nand2_1
*I *1423:A I *D sg13cmos5l_inv_1
*I *1424:A2 I *D sg13cmos5l_a21oi_1
*I *1428:C I *D sg13cmos5l_nand3_1
*I *1422:X O *D sg13cmos5l_a21o_1
*CAP
1 *1466:B 0
2 *1423:A 6.26377e-05
3 *1424:A2 3.08524e-05
4 *1428:C 0.00030131
5 *1422:X 0.000386974
6 *231:75 0.000222324
7 *231:65 0.000888475
8 *231:46 0.00139529
9 *231:27 0.000782556
10 *231:10 0.000773492
11 *1424:A2 *233:16 0
12 *1424:A2 *636:45 1.54008e-05
13 *1424:A2 *668:87 4.77425e-05
14 *1428:C *1424:B1 8.00842e-05
15 *1428:C *1427:C 0.000273299
16 *1428:C *233:16 0
17 *1428:C *636:58 4.77425e-05
18 *231:10 *233:24 0.000185245
19 *231:10 *290:28 0
20 *231:10 *667:42 7.68089e-05
21 *231:27 *233:24 0.000130618
22 *231:27 *667:32 0.00018289
23 *231:27 *667:42 5.42181e-05
24 *231:46 *1891:A 0
25 *231:46 *235:8 0.000234726
26 *231:46 *247:18 0
27 *231:46 *290:14 0.000877922
28 *231:46 *667:30 0.00018354
29 *231:46 *667:32 0
30 *231:65 *1389:B 0.000145184
31 *231:65 *1458:B1 1.54008e-05
32 *231:65 *1891:A 8.02102e-05
33 *231:65 *262:20 0
34 *231:65 *659:14 0
35 *231:65 *668:64 0.000494278
36 *231:75 *1458:B1 0.000111721
37 *231:75 *275:10 0.000110607
38 *1366:A1 *231:10 0
39 *1390:A2 *231:75 0
40 *1427:A *1428:C 8.00842e-05
41 *1466:A *231:75 0
42 *135:20 *231:65 4.77863e-05
43 *160:18 *231:46 0
44 *160:18 *231:65 0.00028049
45 *172:14 *231:10 0
46 *172:54 *231:10 0.000240433
47 *182:10 *231:75 0
48 *182:18 *231:65 0
49 *182:22 *231:65 3.92516e-05
50 *188:52 *231:65 0
51 *190:16 *231:65 0
52 *193:48 *231:10 0
53 *198:8 *231:75 0.000128247
*RES
1 *1422:X *231:10 43.6668 
2 *231:10 *1428:C 43.1518 
3 *231:10 *231:27 1.4111 
4 *231:27 *1424:A2 40.3193 
5 *231:27 *231:46 27.4598 
6 *231:46 *1423:A 20.5073 
7 *231:46 *231:65 47.2074 
8 *231:65 *231:75 42.3793 
9 *231:75 *1466:B 20 
*END

*D_NET *232 0.00103268
*CONN
*I *1464:A2 I *D sg13cmos5l_a221oi_1
*I *1423:Y O *D sg13cmos5l_inv_1
*CAP
1 *1464:A2 3.7236e-05
2 *1423:Y 0.000303151
3 *232:8 0.000340387
4 *232:8 *551:12 0.00014852
5 *232:8 *668:64 0
6 *1464:B2 *1464:A2 0
7 *160:10 *232:8 0.000203385
8 *195:10 *232:8 0
9 *196:12 *232:8 0
*RES
1 *1423:Y *232:8 42.9123 
2 *232:8 *1464:A2 40.2807 
*END

*D_NET *233 0.0020319
*CONN
*I *1427:B I *D sg13cmos5l_nor3_1
*I *1424:Y O *D sg13cmos5l_a21oi_1
*CAP
1 *1427:B 2.56389e-05
2 *1424:Y 0.000200798
3 *233:24 0.000310858
4 *233:16 0.000486017
5 *1427:B *1427:C 9.55781e-05
6 *233:16 *1424:B1 4.77425e-05
7 *233:16 *636:45 0.000213695
8 *233:16 *668:103 0
9 *233:24 *290:24 9.62454e-05
10 *233:24 *290:28 0.000239463
11 *1424:A2 *233:16 0
12 *1428:C *233:16 0
13 *172:20 *233:24 0
14 *231:10 *233:24 0.000185245
15 *231:27 *233:24 0.000130618
*RES
1 *1424:Y *233:16 42.2608 
2 *233:16 *233:24 43.1724 
3 *233:24 *1427:B 40.3193 
*END

*D_NET *234 0.00326206
*CONN
*I *1427:C I *D sg13cmos5l_nor3_1
*I *1425:Y O *D sg13cmos5l_nor2_1
*CAP
1 *1427:C 0.000791276
2 *1425:Y 0.000254093
3 *234:8 0.00104537
4 *1427:C *1433:A1 0.00027343
5 *1427:C *636:75 0
6 *234:8 *256:37 0
7 *234:8 *636:83 7.5374e-05
8 *234:8 *668:103 0.000341621
9 *1380:A *1427:C 0
10 *1427:A *1427:C 0.000112019
11 *1427:B *1427:C 9.55781e-05
12 *1428:C *1427:C 0.000273299
13 *160:87 *1427:C 0
14 *165:22 *234:8 0
15 *170:80 *1427:C 0
16 *193:48 *1427:C 0
*RES
1 *1425:Y *234:8 42.8222 
2 *234:8 *1427:C 47.3239 
*END

*D_NET *235 0.00104208
*CONN
*I *1464:B1 I *D sg13cmos5l_a221oi_1
*I *1426:Y O *D sg13cmos5l_nand2b_1
*CAP
1 *1464:B1 0.000153568
2 *1426:Y 4.46266e-05
3 *235:8 0.000198194
4 *1464:B1 *1464:A1 0.000175618
5 *235:8 *667:32 0.000235345
6 *231:46 *235:8 0.000234726
*RES
1 *1426:Y *235:8 41.0918 
2 *235:8 *1464:B1 41.4008 
*END

*D_NET *236 0.000850752
*CONN
*I *1433:A1 I *D sg13cmos5l_o21ai_1
*I *1427:Y O *D sg13cmos5l_nor3_1
*CAP
1 *1433:A1 0.000151946
2 *1427:Y 0.000151946
3 *1433:A1 *1433:A2 0.00027343
4 *1427:C *1433:A1 0.00027343
*RES
1 *1427:Y *1433:A1 41.8334 
*END

*D_NET *237 0.00140225
*CONN
*I *1430:B1 I *D sg13cmos5l_o21ai_1
*I *1428:Y O *D sg13cmos5l_nand3_1
*CAP
1 *1430:B1 0.000158238
2 *1428:Y 0.000141357
3 *237:8 0.000299595
4 *1430:B1 *1430:A2 0.000240366
5 *1430:B1 *1433:A2 4.77425e-05
6 *237:8 *636:45 2.22559e-05
7 *237:8 *667:42 7.64e-05
8 *1373:B *237:8 0.000108436
9 *1386:A1 *237:8 0
10 *161:43 *237:8 0.000184058
11 *174:85 *1430:B1 4.72458e-05
12 *174:85 *237:8 7.65602e-05
*RES
1 *1428:Y *237:8 41.8334 
2 *237:8 *1430:B1 41.6171 
*END

*D_NET *238 0.00424882
*CONN
*I *1432:A2 I *D sg13cmos5l_a21oi_1
*I *1430:A2 I *D sg13cmos5l_o21ai_1
*I *1429:Y O *D sg13cmos5l_a22oi_1
*CAP
1 *1432:A2 0
2 *1430:A2 0.000207501
3 *1429:Y 0.000598025
4 *238:14 0.000207501
5 *238:12 0.000598025
6 *238:12 *241:10 0.000128654
7 *238:12 *256:10 0
8 *238:12 *638:61 0.000611625
9 *238:12 *657:12 0
10 *238:12 *657:16 6.4711e-05
11 *238:12 *657:18 4.77425e-05
12 *238:12 *659:41 0.000608905
13 *238:12 *660:153 0.000504266
14 *238:12 *663:28 0
15 *1429:B1 *238:12 4.77425e-05
16 *1430:B1 *1430:A2 0.000240366
17 *1430:A1 *1430:A2 0.00033743
18 *87:16 *1430:A2 1.54008e-05
19 *163:56 *238:12 0
20 *174:85 *1430:A2 1.54008e-05
21 *180:12 *238:12 1.55212e-05
22 *193:44 *238:12 0
*RES
1 *1429:Y *238:12 48.0958 
2 *238:12 *238:14 20 
3 *238:14 *1430:A2 22.266 
4 *238:14 *1432:A2 20 
*END

*D_NET *239 0.000957868
*CONN
*I *1433:A2 I *D sg13cmos5l_o21ai_1
*I *1430:Y O *D sg13cmos5l_o21ai_1
*CAP
1 *1433:A2 0.000294476
2 *1430:Y 0.000294476
3 *1433:A2 *1433:B1 4.77425e-05
4 *1430:B1 *1433:A2 4.77425e-05
5 *1433:A1 *1433:A2 0.00027343
6 *160:87 *1433:A2 0
7 *174:85 *1433:A2 0
*RES
1 *1430:Y *1433:A2 43.1724 
*END

*D_NET *240 0.000586371
*CONN
*I *1432:B1 I *D sg13cmos5l_a21oi_1
*I *1431:Y O *D sg13cmos5l_nor3_1
*CAP
1 *1432:B1 0.000189447
2 *1431:Y 0.000189447
3 *1432:B1 *241:10 4.77425e-05
4 *1432:B1 *637:98 0
5 *87:16 *1432:B1 4.73096e-05
6 *160:77 *1432:B1 0.000112426
7 *194:8 *1432:B1 0
*RES
1 *1431:Y *1432:B1 41.751 
*END

*D_NET *241 0.000970102
*CONN
*I *1433:B1 I *D sg13cmos5l_o21ai_1
*I *1432:Y O *D sg13cmos5l_a21oi_1
*CAP
1 *1433:B1 2.60565e-05
2 *1432:Y 0.000138098
3 *241:10 0.000164154
4 *241:10 *660:153 0
5 *1430:A1 *241:10 4.77425e-05
6 *1432:B1 *241:10 4.77425e-05
7 *1433:A2 *1433:B1 4.77425e-05
8 *87:16 *241:10 3.23417e-05
9 *161:43 *241:10 0.000289828
10 *174:85 *1433:B1 4.77425e-05
11 *238:12 *241:10 0.000128654
*RES
1 *1432:Y *241:10 41.8746 
2 *241:10 *1433:B1 40.3193 
*END

*D_NET *242 0.00213316
*CONN
*I *1437:A2 I *D sg13cmos5l_a21oi_1
*I *1433:Y O *D sg13cmos5l_o21ai_1
*CAP
1 *1437:A2 0.000670686
2 *1433:Y 0.000670686
3 *1437:A2 *1417:B1 0
4 *1437:A2 *1435:B 7.43089e-05
5 *1437:A2 *1436:A 0
6 *1437:A2 *244:10 7.94957e-05
7 *1437:A2 *636:75 0
8 *1437:A1 *1437:A2 0.000221858
9 *160:87 *1437:A2 0.000208063
10 *174:85 *1437:A2 0.000208063
*RES
1 *1433:Y *1437:A2 46.8042 
*END

*D_NET *243 0.000654719
*CONN
*I *1435:B I *D sg13cmos5l_nand2_1
*I *1434:Y O *D sg13cmos5l_a21oi_1
*CAP
1 *1435:B 5.20546e-05
2 *1434:Y 0.00023815
3 *243:8 0.000290205
4 *243:8 *256:37 0
5 *243:8 *637:98 0
6 *1437:A2 *1435:B 7.43089e-05
7 *165:22 *243:8 0
*RES
1 *1434:Y *243:8 41.8334 
2 *243:8 *1435:B 40.497 
*END

*D_NET *244 0.00256182
*CONN
*I *1436:B I *D sg13cmos5l_nor2_1
*I *1439:A2 I *D sg13cmos5l_a22oi_1
*I *1435:Y O *D sg13cmos5l_nand2_1
*CAP
1 *1436:B 0.000169633
2 *1439:A2 0.000610584
3 *1435:Y 6.90252e-05
4 *244:10 0.000849243
5 *1436:B *245:8 0.000215328
6 *1436:B *636:93 0
7 *1439:A2 *1437:B1 0.000176561
8 *1439:A2 *1439:B1 1.51e-05
9 *1439:A2 *1439:B2 3.15716e-05
10 *1439:A2 *245:8 0.00034528
11 *1439:A2 *636:93 0
12 *1439:A2 *665:38 0
13 *1437:A2 *244:10 7.94957e-05
*RES
1 *1435:Y *244:10 40.8858 
2 *244:10 *1439:A2 45.526 
3 *244:10 *1436:B 41.8437 
*END

*D_NET *245 0.00203852
*CONN
*I *1437:B1 I *D sg13cmos5l_a21oi_1
*I *1436:Y O *D sg13cmos5l_nor2_1
*CAP
1 *1437:B1 0.000120538
2 *1436:Y 0.000118209
3 *245:8 0.000238747
4 *1437:B1 *637:84 0.000208615
5 *1437:B1 *665:38 0
6 *1436:B *245:8 0.000215328
7 *1439:A2 *1437:B1 0.000176561
8 *1439:A2 *245:8 0.00034528
9 *170:64 *245:8 0.000615241
*RES
1 *1436:Y *245:8 42.8222 
2 *245:8 *1437:B1 41.4008 
*END

*D_NET *246 0.00135438
*CONN
*I *1445:A1 I *D sg13cmos5l_o21ai_1
*I *1437:Y O *D sg13cmos5l_a21oi_1
*CAP
1 *1445:A1 0.000174558
2 *1437:Y 6.51225e-05
3 *246:8 0.00023968
4 *1445:A1 *1445:A2 4.77425e-05
5 *1408:A *246:8 0.000342222
6 *135:74 *1445:A1 0.000144632
7 *163:29 *246:8 0.000340421
*RES
1 *1437:Y *246:8 41.5862 
2 *246:8 *1445:A1 41.6171 
*END

*D_NET *247 0.0101304
*CONN
*I *1441:B I *D sg13cmos5l_nor2_1
*I *1439:B1 I *D sg13cmos5l_a22oi_1
*I *1438:Y O *D sg13cmos5l_nand2_1
*CAP
1 *1441:B 0.000139023
2 *1439:B1 0.00028046
3 *1438:Y 0
4 *247:22 0.00112681
5 *247:18 0.00190865
6 *247:10 0.00254303
7 *247:6 0.00134171
8 *1439:B1 *665:12 0
9 *1439:B1 *665:38 1.51e-05
10 *247:10 *626:20 0
11 *247:10 *667:30 0
12 *247:10 *762:42 0.000768492
13 *247:18 *1460:C 0
14 *247:18 *1891:A 0
15 *247:18 *273:12 2.21819e-05
16 *247:18 *273:20 0
17 *247:18 *278:14 0
18 *247:18 *290:14 2.25909e-05
19 *247:18 *735:33 0.000468858
20 *247:22 *627:12 0
21 *247:22 *666:12 0
22 *247:22 *666:62 0
23 *1408:A *1439:B1 0.000182121
24 *1439:A2 *1439:B1 1.51e-05
25 *1448:A *1439:B1 0
26 *135:36 *1439:B1 0.000451084
27 *135:36 *247:22 0.000666605
28 *135:74 *1439:B1 0
29 *160:18 *247:10 0.000178556
30 *163:29 *1439:B1 0
31 *163:29 *247:22 0
32 *171:53 *247:10 0
33 *187:8 *247:22 0
34 *206:8 *247:22 0
35 *231:46 *247:18 0
*RES
1 *1438:Y *247:6 40 
2 *247:6 *247:10 33.5136 
3 *247:10 *247:18 49.3524 
4 *247:18 *247:22 27.2718 
5 *247:22 *1439:B1 43.7029 
6 *247:22 *1441:B 41.1845 
*END

*D_NET *248 0.00201867
*CONN
*I *1440:A I *D sg13cmos5l_inv_1
*I *1439:Y O *D sg13cmos5l_a22oi_1
*CAP
1 *1440:A 0
2 *1439:Y 0.000221019
3 *248:10 0.000221019
4 *248:10 *1439:B2 3.15716e-05
5 *248:10 *249:8 0.000879469
6 *248:10 *270:14 0.000665594
7 *179:26 *248:10 0
*RES
1 *1439:Y *248:10 44.2693 
2 *248:10 *1440:A 40 
*END

*D_NET *249 0.00287726
*CONN
*I *1445:A2 I *D sg13cmos5l_o21ai_1
*I *1440:Y O *D sg13cmos5l_inv_1
*CAP
1 *1445:A2 2.90123e-05
2 *1440:Y 0.000248204
3 *249:8 0.000277217
4 *1445:A2 *1445:B1 1.54008e-05
5 *249:8 *283:30 0.000181438
6 *1445:A1 *1445:A2 4.77425e-05
7 *179:26 *249:8 0
8 *208:8 *249:8 0.00119878
9 *248:10 *249:8 0.000879469
*RES
1 *1440:Y *249:8 45.5414 
2 *249:8 *1445:A2 40.3193 
*END

*D_NET *250 0.00237231
*CONN
*I *1444:C I *D sg13cmos5l_nor4_1
*I *1441:Y O *D sg13cmos5l_nor2_1
*CAP
1 *1444:C 0.000229027
2 *1441:Y 0.000213277
3 *250:8 0.000442304
4 *1444:C *1443:A_N 0
5 *1444:C *1445:B1 0.000216643
6 *250:8 *1439:A1 0
7 *250:8 *270:14 0.00077115
8 *250:8 *618:10 0.00045217
9 *1444:B *1444:C 4.77425e-05
10 *1448:A *1444:C 0
*RES
1 *1441:Y *250:8 43.5638 
2 *250:8 *1444:C 42.3175 
*END

*D_NET *251 0.000688441
*CONN
*I *1443:A_N I *D sg13cmos5l_nand2b_1
*I *1442:Y O *D sg13cmos5l_nor3_1
*CAP
1 *1443:A_N 0.000284284
2 *1442:Y 0.000284284
3 *1443:A_N *1407:B1 0
4 *1443:A_N *1407:A1 7.31538e-06
5 *1443:A_N *1442:A 0
6 *1443:A_N *1445:B1 0
7 *1443:A_N *637:66 0
8 *1407:A2 *1443:A_N 0
9 *1442:B *1443:A_N 0
10 *1443:B *1443:A_N 0.000112558
11 *1444:C *1443:A_N 0
12 *203:61 *1443:A_N 0
*RES
1 *1442:Y *1443:A_N 43.2548 
*END

*D_NET *252 0.00146686
*CONN
*I *1444:D I *D sg13cmos5l_nor4_1
*I *1443:Y O *D sg13cmos5l_nand2b_1
*CAP
1 *1444:D 0
2 *1443:Y 0.000326927
3 *252:10 0.000326927
4 *252:10 *1474:B1 0
5 *252:10 *283:20 0
6 *252:10 *284:8 0.00018261
7 *252:10 *285:10 7.6403e-05
8 *252:10 *637:66 0.000272878
9 *1448:A *252:10 4.77425e-05
10 *217:12 *252:10 0
11 *223:26 *252:10 0.000233375
*RES
1 *1443:Y *252:10 43.8522 
2 *252:10 *1444:D 40 
*END

*D_NET *253 0.000640648
*CONN
*I *1445:B1 I *D sg13cmos5l_o21ai_1
*I *1444:Y O *D sg13cmos5l_nor4_1
*CAP
1 *1445:B1 0.000204302
2 *1444:Y 0.000204302
3 *1443:A_N *1445:B1 0
4 *1444:C *1445:B1 0.000216643
5 *1445:A2 *1445:B1 1.54008e-05
6 *135:74 *1445:B1 0
*RES
1 *1444:Y *1445:B1 41.9982 
*END

*D_NET *254 0.00182566
*CONN
*I *1446:C I *D sg13cmos5l_nand3_1
*I *1445:Y O *D sg13cmos5l_o21ai_1
*CAP
1 *1446:C 0
2 *1445:Y 0.000146221
3 *254:8 0.000146221
4 *254:8 *270:14 0.000766964
5 *254:8 *283:30 0.000766252
*RES
1 *1445:Y *254:8 43.5638 
2 *254:8 *1446:C 40 
*END

*D_NET *255 0.00250745
*CONN
*I *1449:A I *D sg13cmos5l_and2_1
*I *1504:A1 I *D sg13cmos5l_a221oi_1
*I *1446:Y O *D sg13cmos5l_nand3_1
*CAP
1 *1449:A 5.18976e-05
2 *1504:A1 0
3 *1446:Y 0.000292316
4 *255:18 9.30615e-05
5 *255:12 0.000211069
6 *255:8 0.000358426
7 *1449:A *1449:B 6.46834e-05
8 *255:8 *283:30 0.000712792
9 *255:12 *1449:B 1.54008e-05
10 *255:18 *270:14 0.000396107
11 *255:18 *283:30 0.000129592
12 *255:18 *287:21 0.000182109
13 *135:42 *255:8 0
*RES
1 *1446:Y *255:8 43.3166 
2 *255:8 *255:12 20.5356 
3 *255:12 *255:18 41.8334 
4 *255:18 *1504:A1 20 
5 *255:12 *1449:A 20.5356 
*END

*D_NET *256 0.0128528
*CONN
*I *1451:B I *D sg13cmos5l_nor2_1
*I *1470:B I *D sg13cmos5l_or2_1
*I *1459:C I *D sg13cmos5l_nor3_1
*I *1468:A2 I *D sg13cmos5l_a22oi_1
*I *1448:B I *D sg13cmos5l_nor2_1
*I *1447:Y O *D sg13cmos5l_nor4_1
*CAP
1 *1451:B 0.00022689
2 *1470:B 0.000337967
3 *1459:C 0
4 *1468:A2 0.000121945
5 *1448:B 7.15032e-05
6 *1447:Y 0.000690145
7 *256:60 0.000337967
8 *256:58 0.000705189
9 *256:50 0.00119994
10 *256:37 0.000888356
11 *256:24 0.000646951
12 *256:18 0.00124059
13 *256:10 0.000856746
14 *1451:B *1458:A2 0
15 *1451:B *735:14 0
16 *1468:A2 *1469:B1 0
17 *1468:A2 *273:20 0.000176872
18 *1468:A2 *661:110 0
19 *1470:B *1471:B 2.21754e-05
20 *1470:B *666:92 0
21 *256:10 *1447:A 0
22 *256:10 *1447:C 0
23 *256:10 *1447:D 1.54556e-05
24 *256:10 *638:45 7.5374e-05
25 *256:10 *638:51 0.000130532
26 *256:10 *661:26 0.000428061
27 *256:10 *661:32 0.000182624
28 *256:10 *661:104 0.000322935
29 *256:18 *637:98 0.000128654
30 *256:18 *661:104 0.000153207
31 *256:24 *637:66 8.09323e-05
32 *256:24 *681:22 0
33 *256:37 *636:83 0
34 *256:37 *661:104 0.00144003
35 *256:37 *668:103 0.000449137
36 *256:37 *735:33 0
37 *256:37 *735:35 0
38 *256:50 *1469:B1 0.000112799
39 *256:50 *273:20 0.000219649
40 *256:58 *268:8 0
41 *1335:C *1470:B 0
42 *1448:A *1448:B 0
43 *1466:A *1451:B 0
44 *1890:A *256:10 0.000714713
45 *1955:A *256:10 0
46 *135:36 *1470:B 0
47 *135:36 *256:58 0
48 *144:12 *1470:B 0
49 *160:43 *1470:B 1.54008e-05
50 *161:43 *256:24 0.000474434
51 *163:50 *256:10 0.00027343
52 *163:56 *256:10 0
53 *165:22 *256:37 0
54 *181:12 *256:10 0
55 *199:16 *1451:B 0
56 *209:8 *256:10 0
57 *214:20 *1448:B 0
58 *217:12 *1448:B 0.0001122
59 *234:8 *256:37 0
60 *238:12 *256:10 0
61 *243:8 *256:37 0
*RES
1 *1447:Y *256:10 49.1011 
2 *256:10 *256:18 41.8746 
3 *256:18 *256:24 46.1594 
4 *256:24 *1448:B 40.7519 
5 *256:18 *256:37 27.2718 
6 *256:37 *1468:A2 21.1845 
7 *256:37 *256:50 23.0488 
8 *256:50 *256:58 45.7989 
9 *256:58 *256:60 20 
10 *256:60 *1459:C 20 
11 *256:60 *1470:B 23.0694 
12 *256:50 *1451:B 42.5029 
*END

*D_NET *257 0.00571237
*CONN
*I *1449:B I *D sg13cmos5l_and2_1
*I *1504:A2 I *D sg13cmos5l_a221oi_1
*I *1448:Y O *D sg13cmos5l_nor2_1
*CAP
1 *1449:B 9.3587e-05
2 *1504:A2 0.000256806
3 *1448:Y 0.000337121
4 *257:16 0.00097311
5 *257:14 0.000959838
6 *1449:B *1807:CLK 0.000143728
7 *1504:A2 *1504:B1 0
8 *1504:A2 *283:40 0.000183555
9 *1504:A2 *285:24 0
10 *1504:A2 *287:10 0
11 *1504:A2 *665:61 0
12 *257:14 *1439:B2 0.000235249
13 *257:14 *1439:A1 7.51544e-05
14 *257:14 *285:24 0.000343781
15 *257:14 *618:10 0
16 *257:14 *665:12 4.80449e-05
17 *257:16 *285:24 0
18 *257:16 *618:10 0.000985488
19 *257:16 *665:61 0
20 *257:16 *740:71 0.000290042
21 *1449:A *1449:B 6.46834e-05
22 *174:41 *257:16 0.000129454
23 *217:12 *257:14 0.000288758
24 *219:10 *257:16 0.000288571
25 *223:26 *257:14 0
26 *255:12 *1449:B 1.54008e-05
*RES
1 *1448:Y *257:14 44.5217 
2 *257:14 *257:16 7.519 
3 *257:16 *1504:A2 42.2583 
4 *257:16 *1449:B 40.9682 
*END

*D_NET *258 0.020867
*CONN
*I *1501:C I *D sg13cmos5l_and3_1
*I *1493:B I *D sg13cmos5l_xor2_1
*I *1497:A2 I *D sg13cmos5l_o21ai_1
*I *1496:B I *D sg13cmos5l_nand2_1
*I *1500:C I *D sg13cmos5l_nor3_1
*I *1477:B1 I *D sg13cmos5l_a21oi_1
*I *1449:X O *D sg13cmos5l_and2_1
*CAP
1 *1501:C 0
2 *1493:B 0.00014347
3 *1497:A2 4.45906e-05
4 *1496:B 0.000517636
5 *1500:C 0.000145154
6 *1477:B1 0.000429201
7 *1449:X 0
8 *258:74 0.00123947
9 *258:62 0.00135545
10 *258:52 0.000997413
11 *258:39 0.000696714
12 *258:37 0.00102575
13 *258:27 0.00213559
14 *258:6 0.00182568
15 *1477:B1 *1477:A1 0
16 *1477:B1 *1477:A2 0
17 *1477:B1 *1504:B2 0
18 *1477:B1 *1507:A 0.000241538
19 *1477:B1 *287:21 0
20 *1477:B1 *300:32 0.000450258
21 *1477:B1 *665:61 8.01612e-05
22 *1493:B *564:20 0
23 *1493:B *674:26 0.000208162
24 *1496:B *348:22 0.000176293
25 *1496:B *407:33 0.000772499
26 *1496:B *409:12 0
27 *1496:B *416:20 0.0001292
28 *1496:B *416:34 0.000183415
29 *1496:B *630:12 0
30 *1496:B *654:156 0.00034292
31 *1497:A2 *1497:B1 8.47267e-05
32 *258:27 *1807:CLK 0.000629064
33 *258:27 *1808:CLK 0
34 *258:27 *1861:A 0
35 *258:27 *546:21 0
36 *258:27 *564:6 0
37 *258:37 *636:33 0
38 *258:37 *655:126 7.51285e-05
39 *258:37 *675:14 0
40 *258:37 *683:8 2.21839e-05
41 *258:39 *564:20 0
42 *258:39 *655:126 0.000369819
43 *258:52 *660:62 0.000638373
44 *258:62 *1502:B1 7.9586e-05
45 *258:62 *1601:A2 0.000633162
46 *258:62 *304:8 0
47 *258:62 *403:10 0.000288697
48 *258:62 *612:25 0.000611263
49 *258:62 *612:35 0
50 *258:62 *660:62 0.000234727
51 *258:74 *1601:A2 0.000185245
52 *258:74 *302:18 0.000537653
53 *258:74 *372:147 0.000342951
54 *258:74 *410:85 7.23189e-05
55 *258:74 *416:34 0
56 *258:74 *526:12 0.000556222
57 *258:74 *586:18 0
58 *258:74 *637:151 0.000211669
59 *1807:D *1477:B1 0
60 *1965:A *1500:C 1.54008e-05
61 *3:23 *1477:B1 0.000394566
62 *3:23 *258:27 0
63 *53:16 *258:27 0
64 *55:10 *258:37 0.000499886
65 *85:8 *258:74 0
66 *135:42 *258:27 0.000307057
67 *163:97 *1497:A2 1.54008e-05
68 *180:39 *258:27 0.000921294
69 *202:16 *258:52 0
70 *202:16 *258:62 0
*RES
1 *1449:X *258:6 40 
2 *258:6 *1477:B1 45.3045 
3 *258:6 *258:27 34.8423 
4 *258:27 *258:37 47.9413 
5 *258:37 *258:39 2.9149 
6 *258:39 *1500:C 21.3184 
7 *258:39 *258:52 23.0694 
8 *258:52 *258:62 47.416 
9 *258:62 *258:74 48.4769 
10 *258:74 *1496:B 46.6641 
11 *258:62 *1497:A2 40.5356 
12 *258:52 *1493:B 41.4008 
13 *258:27 *1501:C 20 
*END

*D_NET *259 0.000632653
*CONN
*I *1461:B1 I *D sg13cmos5l_o21ai_1
*I *1450:Y O *D sg13cmos5l_nor2_1
*CAP
1 *1461:B1 0.000133025
2 *1450:Y 0.000133025
3 *1461:B1 *1436:A 0
4 *1461:B1 *1461:A2 0.00017573
5 *1461:B1 *270:6 7.98582e-05
6 *1461:B1 *270:14 0.000111016
7 *214:20 *1461:B1 0
*RES
1 *1450:Y *1461:B1 41.4008 
*END

*D_NET *260 0.00336916
*CONN
*I *1458:A2 I *D sg13cmos5l_a221oi_1
*I *1452:B I *D sg13cmos5l_nor2_1
*I *1457:B I *D sg13cmos5l_nor2_1
*I *1451:Y O *D sg13cmos5l_nor2_1
*CAP
1 *1458:A2 0.000375023
2 *1452:B 0.000440917
3 *1457:B 0
4 *1451:Y 0.000136525
5 *260:10 0.000952464
6 *1452:B *602:8 0.000340704
7 *1452:B *734:19 0
8 *1452:B *735:12 0
9 *1458:A2 *1458:A1 0
10 *1458:A2 *735:14 0
11 *1451:B *1458:A2 0
12 *18:8 *1452:B 0
13 *135:20 *1458:A2 0
14 *141:36 *1452:B 0.000978834
15 *188:37 *260:10 0
16 *188:52 *260:10 0
17 *199:24 *1458:A2 0.000144691
*RES
1 *1451:Y *260:10 41.6274 
2 *260:10 *1457:B 40 
3 *260:10 *1452:B 46.5302 
4 *260:10 *1458:A2 43.8342 
*END

*D_NET *261 0.00249727
*CONN
*I *1456:A I *D sg13cmos5l_nor2_1
*I *1452:Y O *D sg13cmos5l_nor2_1
*CAP
1 *1456:A 0.000145968
2 *1452:Y 0.000620622
3 *261:10 0.000766589
4 *1456:A *265:12 0
5 *261:10 *1780:CLK 0
6 *261:10 *734:19 0
7 *1323:C *1456:A 0.000274594
8 *1780:D *1456:A 0.000242313
9 *141:10 *261:10 0.000447182
*RES
1 *1452:Y *261:10 46.6641 
2 *261:10 *1456:A 41.8334 
*END

*D_NET *262 0.00518753
*CONN
*I *1455:B1 I *D sg13cmos5l_o21ai_1
*I *1453:Y O *D sg13cmos5l_nand2_1
*CAP
1 *1455:B1 0
2 *1453:Y 0.00137064
3 *262:20 0.000285474
4 *262:10 0.00165611
5 *262:10 *1793:CLK 0
6 *262:10 *1802:CLK 0
7 *262:10 *659:14 0
8 *262:10 *667:113 0.000176586
9 *262:10 *679:12 0
10 *262:10 *728:10 7.89542e-05
11 *262:20 *1458:B1 1.54008e-05
12 *262:20 *667:18 7.55683e-05
13 *262:20 *667:20 0
14 *262:20 *668:64 0
15 *1317:B *262:10 2.3022e-05
16 *1319:B1 *262:10 0
17 *1320:A *262:10 0.000144801
18 *1388:B1 *262:10 0
19 *1390:A2 *262:20 1.54008e-05
20 *1453:B *262:10 0.000532493
21 *1779:D *262:10 4.77425e-05
22 *136:25 *262:10 0.000337485
23 *137:62 *262:10 8.00842e-05
24 *190:16 *262:20 0.00023541
25 *197:8 *262:20 0.00011236
26 *231:65 *262:20 0
*RES
1 *1453:Y *262:10 32.8853 
2 *262:10 *262:20 43.1518 
3 *262:20 *1455:B1 20 
*END

*D_NET *263 0.00103949
*CONN
*I *1456:B I *D sg13cmos5l_nor2_1
*I *1454:Y O *D sg13cmos5l_nor2_1
*CAP
1 *1456:B 0.000110638
2 *1454:Y 0.000108479
3 *263:8 0.000219117
4 *1456:B *265:12 0.000209779
5 *1780:D *1456:B 0.000209779
6 *188:52 *263:8 0.000181694
*RES
1 *1454:Y *263:8 41.339 
2 *263:8 *1456:B 41.4008 
*END

*D_NET *264 0.00251491
*CONN
*I *1458:B1 I *D sg13cmos5l_a221oi_1
*I *1455:Y O *D sg13cmos5l_o21ai_1
*CAP
1 *1458:B1 0.000880719
2 *1455:Y 0.000880719
3 *1458:B1 *1458:B2 0
4 *1458:B1 *1458:A1 0.000112437
5 *1458:B1 *734:19 0
6 *1390:A2 *1458:B1 0.000208834
7 *1454:B *1458:B1 4.77866e-05
8 *1457:A *1458:B1 0.000241891
9 *135:20 *1458:B1 0
10 *199:24 *1458:B1 0
11 *231:65 *1458:B1 1.54008e-05
12 *231:75 *1458:B1 0.000111721
13 *262:20 *1458:B1 1.54008e-05
*RES
1 *1455:Y *1458:B1 48.7962 
*END

*D_NET *265 0.00264862
*CONN
*I *1458:B2 I *D sg13cmos5l_a221oi_1
*I *1456:Y O *D sg13cmos5l_nor2_1
*CAP
1 *1458:B2 8.41398e-05
2 *1456:Y 0.00064787
3 *265:12 0.00073201
4 *1458:B2 *1458:C1 0.000144365
5 *265:12 *1389:B 0
6 *265:12 *735:12 0.000234224
7 *1320:A *265:12 0
8 *1323:C *265:12 0
9 *1456:A *265:12 0
10 *1456:B *265:12 0.000209779
11 *1457:A *1458:B2 0.000112394
12 *1458:B1 *1458:B2 0
13 *1780:D *265:12 0
14 *135:20 *265:12 0
15 *141:23 *265:12 0
16 *143:8 *265:12 0.000241722
17 *188:52 *265:12 0.000242121
*RES
1 *1456:Y *265:12 46.7362 
2 *265:12 *1458:B2 40.9682 
*END

*D_NET *266 0.000671171
*CONN
*I *1458:C1 I *D sg13cmos5l_a221oi_1
*I *1457:Y O *D sg13cmos5l_nor2_1
*CAP
1 *1458:C1 0.000158958
2 *1457:Y 0.000158958
3 *1457:A *1458:C1 0
4 *1458:B2 *1458:C1 0.000144365
5 *135:20 *1458:C1 0.000208889
*RES
1 *1457:Y *1458:C1 41.751 
*END

*D_NET *267 0.00214268
*CONN
*I *1460:C I *D sg13cmos5l_nor4_1
*I *1458:Y O *D sg13cmos5l_a221oi_1
*CAP
1 *1460:C 0.000150709
2 *1458:Y 0.000359286
3 *267:8 0.000509995
4 *1460:C *278:14 0.000176366
5 *267:8 *627:12 0
6 *267:8 *666:79 0.000871387
7 *160:43 *267:8 7.4933e-05
8 *184:6 *1460:C 0
9 *247:18 *1460:C 0
*RES
1 *1458:Y *267:8 44.7998 
2 *267:8 *1460:C 41.4008 
*END

*D_NET *268 0.00116379
*CONN
*I *1460:D I *D sg13cmos5l_nor4_1
*I *1459:Y O *D sg13cmos5l_nor3_1
*CAP
1 *1460:D 0
2 *1459:Y 0.000240774
3 *268:8 0.000240774
4 *268:8 *278:14 2.20966e-05
5 *268:8 *627:12 0.000660142
6 *256:58 *268:8 0
*RES
1 *1459:Y *268:8 43.0694 
2 *268:8 *1460:D 40 
*END

*D_NET *269 0.00298144
*CONN
*I *1461:A2 I *D sg13cmos5l_o21ai_1
*I *1460:Y O *D sg13cmos5l_nor4_1
*CAP
1 *1461:A2 0.000115505
2 *1460:Y 0.000534361
3 *269:10 0.000649866
4 *1461:A2 *1367:A1 0
5 *1461:A2 *1436:A 4.68099e-05
6 *269:10 *1439:A1 7.68089e-05
7 *269:10 *1472:A1 0.000112226
8 *269:10 *737:14 0
9 *269:10 *737:18 0
10 *269:10 *737:24 0.000107929
11 *269:10 *738:26 0
12 *1461:B1 *1461:A2 0.00017573
13 *135:36 *269:10 0.00092613
14 *179:26 *269:10 0.000236071
15 *184:6 *269:10 0
*RES
1 *1460:Y *269:10 46.9731 
2 *269:10 *1461:A2 41.1845 
*END

*D_NET *270 0.0109429
*CONN
*I *1476:A I *D sg13cmos5l_nor2_1
*I *1507:A I *D sg13cmos5l_and2_1
*I *1461:Y O *D sg13cmos5l_o21ai_1
*CAP
1 *1476:A 0
2 *1507:A 0.000489029
3 *1461:Y 3.98537e-05
4 *270:41 4.95696e-05
5 *270:35 0.000429332
6 *270:14 0.00159958
7 *270:6 0.00153017
8 *1507:A *1477:A1 4.7803e-05
9 *1507:A *1507:B 0.000176425
10 *1507:A *308:16 0.000145074
11 *1507:A *641:82 0
12 *270:14 *1439:A1 0
13 *270:14 *283:30 0.000236681
14 *270:14 *287:21 0
15 *270:14 *618:10 0
16 *270:14 *665:61 0.00124669
17 *270:14 *665:69 0.000128247
18 *270:14 *760:18 0.000128379
19 *270:35 *1439:A1 7.51285e-05
20 *270:35 *681:22 0
21 *270:35 *738:26 7.65602e-05
22 *270:41 *1476:B 0
23 *270:41 *285:10 1.54556e-05
24 *270:41 *641:52 0
25 *1414:A *270:41 0
26 *1414:B *270:41 0
27 *1461:B1 *270:6 7.98582e-05
28 *1461:B1 *270:14 0.000111016
29 *1477:B1 *1507:A 0.000241538
30 *1807:D *1507:A 0
31 *135:36 *270:14 0
32 *153:16 *270:35 0.000537021
33 *167:12 *270:14 0.000554444
34 *179:16 *270:35 0
35 *214:12 *270:41 4.78192e-05
36 *214:20 *270:6 6.46834e-05
37 *214:20 *270:14 0.000111016
38 *215:10 *270:14 0.000181695
39 *223:66 *270:35 0
40 *248:10 *270:14 0.000665594
41 *250:8 *270:14 0.00077115
42 *254:8 *270:14 0.000766964
43 *255:18 *270:14 0.000396107
*RES
1 *1461:Y *270:6 20.5356 
2 *270:6 *270:14 36.995 
3 *270:14 *1507:A 44.9131 
4 *270:6 *270:35 44.5629 
5 *270:35 *270:41 40.5356 
6 *270:41 *1476:A 20 
*END

*D_NET *271 0.000206268
*CONN
*I *1463:B I *D sg13cmos5l_and2_1
*I *1462:Y O *D sg13cmos5l_o21ai_1
*CAP
1 *1463:B 0.000103134
2 *1462:Y 0.000103134
3 *156:14 *1463:B 0
*RES
1 *1462:Y *1463:B 41.0918 
*END

*D_NET *272 0.00762013
*CONN
*I *1474:B1 I *D sg13cmos5l_o21ai_1
*I *1507:B I *D sg13cmos5l_and2_1
*I *1463:X O *D sg13cmos5l_and2_1
*CAP
1 *1474:B1 0.000656411
2 *1507:B 0.000632052
3 *1463:X 0.000314259
4 *272:12 0.00160272
5 *1474:B1 *1474:A2 0.000112618
6 *1474:B1 *283:20 0.000184675
7 *1474:B1 *284:8 0
8 *1474:B1 *285:10 0
9 *1474:B1 *544:188 0
10 *1474:B1 *637:66 0.000344271
11 *1507:B *1477:A1 0
12 *1507:B *284:8 0
13 *1507:B *308:16 0.000176567
14 *1507:B *595:59 0.000660336
15 *1411:A *1474:B1 0.000615027
16 *1443:B *1474:B1 0.000323569
17 *1462:A2 *272:12 0.00034575
18 *1463:A *272:12 0
19 *1507:A *1507:B 0.000176425
20 *167:22 *1474:B1 0.000449032
21 *167:48 *1474:B1 0.000343985
22 *223:40 *1474:B1 0.000448209
23 *223:40 *1507:B 0.000234224
24 *224:10 *1507:B 0
25 *252:10 *1474:B1 0
*RES
1 *1463:X *272:12 42.9355 
2 *272:12 *1507:B 46.7259 
3 *272:12 *1474:B1 49.6923 
*END

*D_NET *273 0.00346019
*CONN
*I *1469:A1 I *D sg13cmos5l_o21ai_1
*I *1464:Y O *D sg13cmos5l_a221oi_1
*CAP
1 *1469:A1 0
2 *1464:Y 0.000304233
3 *273:20 0.000705896
4 *273:12 0.00101013
5 *273:12 *1386:S 8.0216e-05
6 *273:12 *1891:A 0.000234224
7 *273:12 *290:14 0
8 *273:12 *641:28 0.000272747
9 *273:20 *641:28 0
10 *273:20 *661:110 0
11 *273:20 *735:33 0.000306964
12 *1386:A1 *273:20 1.54008e-05
13 *1468:A2 *273:20 0.000176872
14 *182:10 *273:20 0.000111683
15 *247:18 *273:12 2.21819e-05
16 *247:18 *273:20 0
17 *256:50 *273:20 0.000219649
*RES
1 *1464:Y *273:12 43.2754 
2 *273:12 *273:20 46.8186 
3 *273:20 *1469:A1 40 
*END

*D_NET *274 0.00377642
*CONN
*I *1468:B1 I *D sg13cmos5l_a22oi_1
*I *1467:A2 I *D sg13cmos5l_o21ai_1
*I *1465:Y O *D sg13cmos5l_nand2_1
*CAP
1 *1468:B1 0.000134183
2 *1467:A2 0
3 *1465:Y 0.000348948
4 *274:16 0.000233307
5 *274:8 0.000716438
6 *1468:B1 *276:14 3.08016e-06
7 *1468:B1 *661:110 4.77425e-05
8 *1468:B1 *666:22 4.77425e-05
9 *1468:B1 *666:32 0.000287256
10 *274:8 *636:75 0.000234783
11 *274:8 *637:106 0
12 *274:8 *638:8 0.000446911
13 *274:8 *638:27 0.000235658
14 *274:8 *666:32 0.000340704
15 *274:16 *1467:A1 0
16 *274:16 *660:153 0.000182872
17 *1373:B *274:16 0.000181691
18 *1391:A1 *1468:B1 0.000287256
19 *1391:A1 *274:16 4.78521e-05
20 *173:20 *274:16 0
21 *188:37 *274:8 0
*RES
1 *1465:Y *274:8 44.5526 
2 *274:8 *274:16 42.4617 
3 *274:16 *1467:A2 40 
4 *274:8 *1468:B1 42.1218 
*END

*D_NET *275 0.0025158
*CONN
*I *1467:B1 I *D sg13cmos5l_o21ai_1
*I *1466:Y O *D sg13cmos5l_nand2_1
*CAP
1 *1467:B1 9.92527e-05
2 *1466:Y 0.000418539
3 *275:10 0.000517792
4 *1467:B1 *276:14 7.94055e-05
5 *1467:B1 *641:28 0
6 *1467:B1 *641:48 8.00521e-05
7 *1373:B *275:10 0
8 *1466:A *275:10 4.7803e-05
9 *182:10 *275:10 0
10 *188:37 *275:10 0.00108579
11 *199:16 *275:10 7.65602e-05
12 *231:75 *275:10 0.000110607
*RES
1 *1466:Y *275:10 45.7989 
2 *275:10 *1467:B1 40.9682 
*END

*D_NET *276 0.00174326
*CONN
*I *1469:A2 I *D sg13cmos5l_o21ai_1
*I *1467:Y O *D sg13cmos5l_o21ai_1
*CAP
1 *1469:A2 5.47572e-05
2 *1467:Y 0.000431871
3 *276:14 0.000486628
4 *1469:A2 *1469:B1 8.00842e-05
5 *1469:A2 *666:22 0
6 *276:14 *641:28 1.54008e-05
7 *276:14 *641:48 0.000318438
8 *276:14 *666:22 0.0002736
9 *1467:B1 *276:14 7.94055e-05
10 *1468:B1 *276:14 3.08016e-06
*RES
1 *1467:Y *276:14 44.429 
2 *276:14 *1469:A2 40.5356 
*END

*D_NET *277 0.000662386
*CONN
*I *1469:B1 I *D sg13cmos5l_o21ai_1
*I *1468:Y O *D sg13cmos5l_a22oi_1
*CAP
1 *1469:B1 0.000234752
2 *1468:Y 0.000234752
3 *1469:B1 *666:22 0
4 *1468:A2 *1469:B1 0
5 *1469:A2 *1469:B1 8.00842e-05
6 *256:50 *1469:B1 0.000112799
*RES
1 *1468:Y *1469:B1 42.2866 
*END

*D_NET *278 0.00333285
*CONN
*I *1472:A1 I *D sg13cmos5l_a21oi_1
*I *1469:Y O *D sg13cmos5l_o21ai_1
*CAP
1 *1472:A1 0.000634913
2 *1469:Y 0.000426612
3 *278:14 0.00106152
4 *1472:A1 *1472:A2 0.000337638
5 *1472:A1 *281:14 0.000337355
6 *1472:A1 *567:8 0
7 *278:14 *1375:A 4.77425e-05
8 *278:14 *641:48 0
9 *278:14 *666:22 0
10 *278:14 *735:33 0
11 *1377:B *1472:A1 0
12 *1460:B *1472:A1 0
13 *1460:C *278:14 0.000176366
14 *184:6 *278:14 0.000176378
15 *186:8 *1472:A1 0
16 *247:18 *278:14 0
17 *268:8 *278:14 2.20966e-05
18 *269:10 *1472:A1 0.000112226
*RES
1 *1469:Y *278:14 44.3672 
2 *278:14 *1472:A1 46.18 
*END

*D_NET *279 0.000597927
*CONN
*I *1471:B I *D sg13cmos5l_and2_1
*I *1470:X O *D sg13cmos5l_or2_1
*CAP
1 *1471:B 0.000199625
2 *1470:X 0.000199625
3 *1335:C *1471:B 0
4 *1470:B *1471:B 2.21754e-05
5 *1471:A *1471:B 0.000176502
*RES
1 *1470:X *1471:B 41.9673 
*END

*D_NET *280 0.00168998
*CONN
*I *1472:A2 I *D sg13cmos5l_a21oi_1
*I *1471:X O *D sg13cmos5l_and2_1
*CAP
1 *1472:A2 0.000226026
2 *1471:X 0.000426273
3 *280:8 0.000652299
4 *1472:A2 *1336:A 4.77425e-05
5 *1471:A *280:8 0
6 *1472:A1 *1472:A2 0.000337638
7 *148:22 *280:8 0
*RES
1 *1471:X *280:8 43.811 
2 *280:8 *1472:A2 42.266 
*END

*D_NET *281 0.00497669
*CONN
*I *1474:A1 I *D sg13cmos5l_o21ai_1
*I *1472:Y O *D sg13cmos5l_a21oi_1
*CAP
1 *1474:A1 0.000178187
2 *1472:Y 0.00077118
3 *281:20 0.000371552
4 *281:14 0.000964545
5 *1474:A1 *1474:A2 7.31538e-06
6 *1474:A1 *1476:B 0.000218487
7 *1474:A1 *285:10 0.0001757
8 *281:14 *544:188 0
9 *281:14 *567:8 0
10 *281:14 *641:48 0
11 *281:20 *681:22 0.000376334
12 *1377:A_N *281:14 0
13 *1471:A *281:14 7.51285e-05
14 *1472:A1 *281:14 0.000337355
15 *1473:A *281:14 0.00023709
16 *148:14 *281:14 0.000181626
17 *148:22 *281:14 0.000182023
18 *153:16 *281:20 0.000374279
19 *179:12 *281:14 0.000236778
20 *185:10 *281:14 0.000289113
*RES
1 *1472:Y *281:14 48.9713 
2 *281:14 *281:20 42.4823 
3 *281:20 *1474:A1 42.0471 
*END

*D_NET *282 0.000481682
*CONN
*I *1474:A2 I *D sg13cmos5l_o21ai_1
*I *1473:X O *D sg13cmos5l_or3_1
*CAP
1 *1474:A2 0.000156973
2 *1473:X 0.000156973
3 *1474:A2 *1476:B 0
4 *1474:A2 *285:10 4.78028e-05
5 *1474:B1 *1474:A2 0.000112618
6 *1474:A1 *1474:A2 7.31538e-06
*RES
1 *1473:X *1474:A2 41.9158 
*END

*D_NET *283 0.0151102
*CONN
*I *1476:B I *D sg13cmos5l_nor2_1
*I *1506:A I *D sg13cmos5l_nand2_1
*I *1516:A1 I *D sg13cmos5l_a21o_1
*I *1517:B I *D sg13cmos5l_nand3_1
*I *1474:Y O *D sg13cmos5l_o21ai_1
*CAP
1 *1476:B 0.000275369
2 *1506:A 0.000636799
3 *1516:A1 0.000540649
4 *1517:B 0
5 *1474:Y 0
6 *283:51 0.00196464
7 *283:40 0.00175436
8 *283:30 0.00162268
9 *283:20 0.00126888
10 *283:4 0.000888737
11 *1506:A *1506:B 0
12 *1506:A *1789:RESET_B 0
13 *1506:A *308:37 0
14 *1506:A *309:6 0.000482754
15 *1506:A *309:12 0.000369903
16 *1506:A *542:12 0
17 *1506:A *676:38 0
18 *1506:A *702:16 0
19 *1516:A1 *1516:A2 4.77425e-05
20 *1516:A1 *1516:B1 4.78356e-05
21 *1516:A1 *1966:A 0.00012816
22 *1516:A1 *583:23 0.000448427
23 *1516:A1 *595:16 0
24 *283:20 *285:20 9.33834e-05
25 *283:20 *544:188 0
26 *283:20 *665:22 7.47067e-05
27 *283:30 *760:18 0.000128379
28 *283:40 *1517:C 1.54556e-05
29 *283:40 *1831:RESET_B 8.03256e-05
30 *283:40 *285:24 0
31 *283:40 *286:8 0
32 *283:40 *307:10 0
33 *283:40 *310:18 0
34 *283:40 *665:61 0.000608129
35 *283:40 *665:69 0
36 *283:40 *754:6 0
37 *283:51 *1517:C 4.79124e-05
38 *283:51 *1831:RESET_B 0.000290104
39 *283:51 *307:25 0.000128796
40 *283:51 *595:59 0
41 *1405:B1 *1476:B 0
42 *1448:A *1476:B 0
43 *1448:A *283:20 0
44 *1474:B1 *283:20 0.000184675
45 *1474:A1 *1476:B 0.000218487
46 *1474:A2 *1476:B 0
47 *1504:A2 *283:40 0.000183555
48 *135:42 *283:30 0
49 *203:51 *283:20 0
50 *208:8 *283:30 0.000552549
51 *249:8 *283:30 0.000181438
52 *252:10 *283:20 0
53 *254:8 *283:30 0.000766252
54 *255:8 *283:30 0.000712792
55 *255:18 *283:30 0.000129592
56 *270:14 *283:30 0.000236681
57 *270:41 *1476:B 0
*RES
1 *1474:Y *283:4 20 
2 *283:4 *283:20 46.4272 
3 *283:20 *283:30 49.6717 
4 *283:30 *283:40 49.6717 
5 *283:40 *1517:B 20 
6 *283:40 *283:51 26.3551 
7 *283:51 *1516:A1 44.8719 
8 *283:51 *1506:A 45.8551 
9 *283:4 *1476:B 22.8428 
*END

*D_NET *284 0.00480656
*CONN
*I *1504:B1 I *D sg13cmos5l_a221oi_1
*I *1477:A1 I *D sg13cmos5l_a21oi_1
*I *1475:Y O *D sg13cmos5l_nor2_1
*CAP
1 *1504:B1 0.000249267
2 *1477:A1 0.000196729
3 *1475:Y 0
4 *284:8 0.00148662
5 *284:6 0.00104062
6 *1477:A1 *1477:A2 1.54556e-05
7 *1477:A1 *307:10 0
8 *1477:A1 *641:82 0.000122871
9 *1504:B1 *1346:A 0
10 *1504:B1 *1504:B2 0
11 *1504:B1 *287:10 0
12 *1504:B1 *307:10 0.000208725
13 *284:8 *285:24 0
14 *284:8 *286:8 0
15 *1346:B *1504:B1 1.54556e-05
16 *1410:B *284:8 0.000343163
17 *1416:B *284:8 0
18 *1416:C *284:8 0
19 *1474:B1 *284:8 0
20 *1477:B1 *1477:A1 0
21 *1504:A2 *1504:B1 0
22 *1507:A *1477:A1 4.7803e-05
23 *1507:B *1477:A1 0
24 *1507:B *284:8 0
25 *167:22 *284:8 0.000449032
26 *167:48 *284:8 0.00031996
27 *218:8 *284:8 0.000128247
28 *223:40 *284:8 0
29 *252:10 *284:8 0.00018261
*RES
1 *1475:Y *284:6 40 
2 *284:6 *284:8 10.4854 
3 *284:8 *1477:A1 41.8437 
4 *284:8 *1504:B1 42.5853 
*END

*D_NET *285 0.00734529
*CONN
*I *1504:B2 I *D sg13cmos5l_a221oi_1
*I *1477:A2 I *D sg13cmos5l_a21oi_1
*I *1476:Y O *D sg13cmos5l_nor2_1
*CAP
1 *1504:B2 0.000168838
2 *1477:A2 5.32901e-05
3 *1476:Y 0.000541987
4 *285:24 0.00125796
5 *285:20 0.00118629
6 *285:10 0.000692446
7 *1477:A2 *307:10 0
8 *1504:B2 *307:10 0.000143932
9 *285:10 *637:66 0.00039668
10 *285:24 *286:8 0.000393736
11 *285:24 *740:71 0.000289113
12 *1416:B *285:24 0
13 *1473:A *285:10 0.000208195
14 *1474:B1 *285:10 0
15 *1474:A1 *285:10 0.0001757
16 *1474:A2 *285:10 4.78028e-05
17 *1477:A1 *1477:A2 1.54556e-05
18 *1477:B1 *1477:A2 0
19 *1477:B1 *1504:B2 0
20 *1504:C1 *1504:B2 1.54556e-05
21 *1504:B1 *1504:B2 0
22 *1504:A2 *285:24 0
23 *23:8 *285:10 0.000129197
24 *174:41 *285:24 0.000129259
25 *203:61 *285:24 0.000129592
26 *214:12 *285:10 0
27 *217:12 *285:24 0
28 *217:14 *285:24 0
29 *219:10 *285:24 0.000287256
30 *223:26 *285:10 0
31 *225:14 *285:24 0.000554078
32 *252:10 *285:10 7.6403e-05
33 *257:14 *285:24 0.000343781
34 *257:16 *285:24 0
35 *270:41 *285:10 1.54556e-05
36 *283:20 *285:20 9.33834e-05
37 *283:40 *285:24 0
38 *284:8 *285:24 0
*RES
1 *1476:Y *285:10 45.7371 
2 *285:10 *285:20 41.6377 
3 *285:20 *285:24 31.4742 
4 *285:24 *1477:A2 20.5356 
5 *285:24 *1504:B2 21.751 
*END

*D_NET *286 0.000891333
*CONN
*I *1478:B I *D sg13cmos5l_nor2_1
*I *1477:Y O *D sg13cmos5l_a21oi_1
*CAP
1 *1478:B 2.89322e-05
2 *1477:Y 0.00019594
3 *286:8 0.000224873
4 *1478:B *1346:A 4.78524e-05
5 *1478:B *1807:CLK 0
6 *1478:B *595:59 0
7 *286:8 *307:10 0
8 *283:40 *286:8 0
9 *284:8 *286:8 0
10 *285:24 *286:8 0.000393736
*RES
1 *1477:Y *286:8 42.3278 
2 *286:8 *1478:B 40.3193 
*END

*D_NET *287 0.0164763
*CONN
*I *1761:B I *D sg13cmos5l_xor2_1
*I *1479:B1 I *D sg13cmos5l_a21o_1
*I *1502:B1 I *D sg13cmos5l_o21ai_1
*I *1498:A I *D sg13cmos5l_nand2_1
*I *1494:B I *D sg13cmos5l_nor2_1
*I *1495:A1 I *D sg13cmos5l_a21oi_1
*I *1478:Y O *D sg13cmos5l_nor2_1
*CAP
1 *1761:B 3.78077e-05
2 *1479:B1 3.80001e-05
3 *1502:B1 0.000866884
4 *1498:A 0.000684618
5 *1494:B 0.000133903
6 *1495:A1 0.000229209
7 *1478:Y 0.000204986
8 *287:35 0.000958813
9 *287:31 0.0017199
10 *287:29 0.00212235
11 *287:21 0.00163671
12 *287:10 0.000661473
13 *1479:B1 *563:98 6.49026e-05
14 *1479:B1 *595:37 1.54446e-05
15 *1494:B *300:14 7.9225e-05
16 *1495:A1 *1495:A2 0.000177178
17 *1495:A1 *1495:B1 0
18 *1498:A *1498:B 0
19 *1498:A *1534:B 0
20 *1498:A *1569:C 0.000182291
21 *1498:A *303:12 0.000143277
22 *1498:A *308:74 0
23 *1498:A *308:76 0
24 *1498:A *308:93 0.000557142
25 *1498:A *368:8 0
26 *1498:A *372:132 0
27 *1498:A *524:16 0
28 *1498:A *525:8 0.000395938
29 *1498:A *663:87 0.000130042
30 *1498:A *672:117 0
31 *1502:B1 *1395:A 4.78192e-05
32 *1502:B1 *1564:A2 0
33 *1502:B1 *305:28 0.000207986
34 *1502:B1 *332:8 0.000466944
35 *1502:B1 *335:8 0.000175617
36 *287:10 *1807:CLK 0.000191684
37 *287:21 *665:69 0.000234727
38 *287:29 *300:32 0
39 *287:29 *310:18 0
40 *287:29 *663:79 0
41 *287:29 *665:69 0.000818821
42 *287:29 *676:25 0.000274496
43 *287:29 *713:10 0
44 *287:29 *758:8 0.000208966
45 *287:31 *1827:RESET_B 0
46 *287:31 *1827:D 0
47 *287:31 *308:72 0
48 *287:31 *332:8 0
49 *287:31 *563:98 0.000273864
50 *287:31 *676:25 0
51 *287:35 *1741:B 0.000182694
52 *287:35 *308:74 0.000291063
53 *287:35 *524:16 0
54 *287:35 *561:70 7.65627e-05
55 *1477:B1 *287:21 0
56 *1504:C1 *287:10 0
57 *1504:B1 *287:10 0
58 *1504:A2 *287:10 0
59 *1790:D *287:29 0
60 *1986:A *287:29 0
61 *3:23 *287:21 0.000532309
62 *3:23 *287:29 0.00119096
63 *202:33 *1502:B1 0
64 *202:52 *1502:B1 0
65 *202:67 *1502:B1 0
66 *255:18 *287:21 0.000182109
67 *258:62 *1502:B1 7.9586e-05
68 *270:14 *287:21 0
*RES
1 *1478:Y *287:10 22.0703 
2 *287:10 *1495:A1 22.0497 
3 *287:10 *287:21 23.3166 
4 *287:21 *287:29 36.7787 
5 *287:29 *287:31 5.5712 
6 *287:31 *287:35 22.0806 
7 *287:35 *1494:B 41.3184 
8 *287:35 *1498:A 47.5396 
9 *287:31 *1502:B1 28.3224 
10 *287:29 *1479:B1 20.5356 
11 *287:21 *1761:B 40.3193 
*END

*D_NET *288 0.00704396
*CONN
*I *1485:A1 I *D sg13cmos5l_a221oi_1
*I *1480:Y O *D sg13cmos5l_a22oi_1
*CAP
1 *1485:A1 0
2 *1480:Y 0.000220408
3 *288:18 0.0023621
4 *288:8 0.0025825
5 *288:8 *1480:A1 0
6 *288:8 *772:48 0.000112426
7 *288:18 *1485:A2 0
8 *288:18 *1803:CLK 0
9 *288:18 *1838:A 0
10 *288:18 *1841:A 0
11 *288:18 *293:10 0.000468039
12 *288:18 *293:14 0
13 *288:18 *546:48 0
14 *288:18 *548:6 0
15 *288:18 *548:13 0
16 *288:18 *552:29 0
17 *288:18 *565:18 0
18 *288:18 *765:31 0
19 *288:18 *767:15 0
20 *288:18 *769:8 0
21 *288:18 *771:38 0.000289714
22 *288:18 *772:10 0.000234311
23 *288:18 *772:20 0.000181608
24 *288:18 *772:48 0
25 *288:18 *773:10 0
26 *288:18 *776:21 0
27 *1488:A2 *288:8 0
28 *32:10 *288:18 0.000448675
29 *209:58 *288:8 0.000144181
30 *209:58 *288:18 0
*RES
1 *1480:Y *288:8 42.0497 
2 *288:8 *288:18 42.5055 
3 *288:18 *1485:A1 20 
*END

*D_NET *289 0.00156541
*CONN
*I *1485:A2 I *D sg13cmos5l_a221oi_1
*I *1481:Y O *D sg13cmos5l_a221oi_1
*CAP
1 *1485:A2 0.000397638
2 *1481:Y 0.000385066
3 *289:8 0.000782704
4 *1485:A2 *1447:D 0
5 *1485:A2 *1835:A 0
6 *1485:A2 *657:41 0
7 *1485:A2 *659:26 0
8 *1485:A2 *765:31 0
9 *289:8 *636:33 0
10 *289:8 *761:8 0
11 *162:16 *289:8 0
12 *180:58 *289:8 0
13 *288:18 *1485:A2 0
*RES
1 *1481:Y *289:8 43.5638 
2 *289:8 *1485:A2 43.5458 
*END

*D_NET *290 0.00675955
*CONN
*I *1485:B1 I *D sg13cmos5l_a221oi_1
*I *1482:Y O *D sg13cmos5l_nand2_1
*CAP
1 *1485:B1 0
2 *1482:Y 0.00059295
3 *290:28 0.00104861
4 *290:24 0.00127709
5 *290:14 0.000821436
6 *290:14 *1891:A 0
7 *290:14 *544:128 0
8 *290:14 *638:27 0
9 *290:24 *636:37 0.000182098
10 *290:28 *544:128 0
11 *290:28 *656:52 0.00012816
12 *290:28 *656:54 0.00098162
13 *290:28 *664:63 0.00023547
14 *1386:A0 *290:14 1.54008e-05
15 *1386:A1 *290:14 1.54008e-05
16 *1482:B *290:14 7.9225e-05
17 *172:10 *290:28 0
18 *172:20 *290:24 0.000145871
19 *195:10 *290:14 0
20 *231:10 *290:28 0
21 *231:46 *290:14 0.000877922
22 *233:24 *290:24 9.62454e-05
23 *233:24 *290:28 0.000239463
24 *247:18 *290:14 2.25909e-05
25 *273:12 *290:14 0
*RES
1 *1482:Y *290:14 46.3757 
2 *290:14 *290:24 43.0076 
3 *290:24 *290:28 30.4854 
4 *290:28 *1485:B1 20 
*END

*D_NET *291 0.00135496
*CONN
*I *1484:C1 I *D sg13cmos5l_a221oi_1
*I *1483:Y O *D sg13cmos5l_o21ai_1
*CAP
1 *1484:C1 0.000524823
2 *1483:Y 0.000524823
3 *1484:C1 *1483:B1 0.000144896
4 *1484:C1 *1484:B2 1.54008e-05
5 *1484:C1 *772:20 0.00014502
6 *1483:A1 *1484:C1 0
7 *209:32 *1484:C1 0
*RES
1 *1483:Y *1484:C1 44.9028 
*END

*D_NET *292 0.00536474
*CONN
*I *1485:B2 I *D sg13cmos5l_a221oi_1
*I *1484:Y O *D sg13cmos5l_a221oi_1
*CAP
1 *1485:B2 0
2 *1484:Y 0.00140176
3 *292:16 0.00040156
4 *292:10 0.00180333
5 *292:10 *1797:RESET_B 0
6 *292:10 *1797:D 8.00842e-05
7 *292:10 *1836:A 0
8 *292:10 *1846:A 0
9 *292:10 *1847:A 0
10 *292:10 *306:20 0
11 *292:10 *546:21 0
12 *292:10 *548:19 0
13 *292:10 *550:15 0
14 *292:10 *555:14 1.54008e-05
15 *292:10 *674:60 0
16 *292:16 *544:128 0
17 *292:16 *564:12 0.00034112
18 *292:16 *656:54 7.52158e-05
19 *292:16 *656:64 0.00071455
20 *292:16 *660:48 0
21 *1484:A2 *292:10 0
22 *55:10 *292:10 0.000531723
23 *209:32 *292:10 0
*RES
1 *1484:Y *292:10 33.3488 
2 *292:10 *292:16 45.2942 
3 *292:16 *1485:B2 20 
*END

*D_NET *293 0.0091547
*CONN
*I *1490:A I *D sg13cmos5l_nor2_1
*I *1485:Y O *D sg13cmos5l_a221oi_1
*CAP
1 *1490:A 0
2 *1485:Y 0.00051213
3 *293:18 0.00106213
4 *293:14 0.00241708
5 *293:10 0.00186709
6 *293:10 *1803:CLK 0
7 *293:10 *1841:A 0
8 *293:10 *545:8 0
9 *293:10 *636:33 0
10 *293:14 *1795:CLK 0
11 *293:14 *1797:CLK 0
12 *293:14 *1803:CLK 0
13 *293:14 *1810:RESET_B 0.0001122
14 *293:14 *548:6 0
15 *293:14 *548:13 0
16 *293:14 *552:29 0.000218104
17 *293:14 *658:76 0
18 *293:14 *769:8 0
19 *293:14 *776:21 0
20 *293:18 *1250:A 0
21 *293:18 *552:12 0.00103555
22 *293:18 *681:18 0
23 *293:18 *771:19 0
24 *293:18 *771:38 0
25 *1796:D *293:14 0
26 *33:10 *293:18 0.00146238
27 *180:39 *293:14 0
28 *180:58 *293:10 0
29 *288:18 *293:10 0.000468039
30 *288:18 *293:14 0
*RES
1 *1485:Y *293:10 44.9646 
2 *293:10 *293:14 32.2158 
3 *293:14 *293:18 32.463 
4 *293:18 *1490:A 40 
*END

*D_NET *294 0.00252539
*CONN
*I *1491:A2 I *D sg13cmos5l_o21ai_1
*I *1486:X O *D sg13cmos5l_mux2_1
*CAP
1 *1491:A2 0.000122027
2 *1486:X 0.000669435
3 *294:10 0.000791463
4 *1491:A2 *1491:B1 0.000208615
5 *294:10 *1848:A 0
6 *294:10 *558:12 0
7 *294:10 *558:23 0
8 *294:10 *773:18 0.000434462
9 *1486:A1 *294:10 0
10 *202:85 *1491:A2 1.54008e-05
11 *202:95 *1491:A2 0.000208615
12 *202:95 *294:10 7.5374e-05
*RES
1 *1486:X *294:10 45.7371 
2 *294:10 *1491:A2 41.4008 
*END

*D_NET *295 0.00300035
*CONN
*I *1489:A1 I *D sg13cmos5l_a21oi_1
*I *1487:Y O *D sg13cmos5l_nand2_1
*CAP
1 *1489:A1 0.000412577
2 *1487:Y 0.000549511
3 *295:10 0.000962087
4 *1489:A1 *1489:A2 3.11364e-05
5 *1489:A1 *1792:RESET_B 1.54008e-05
6 *295:10 *1487:A 7.93152e-05
7 *295:10 *626:20 0
8 *295:10 *641:28 0.000822458
9 *295:10 *656:12 0
10 *1383:B *295:10 0
11 *32:10 *295:10 0
12 *161:10 *1489:A1 0
13 *171:61 *1489:A1 8.00959e-05
14 *192:20 *295:10 4.77699e-05
15 *202:103 *1489:A1 0
*RES
1 *1487:Y *295:10 45.8607 
2 *295:10 *1489:A1 43.5638 
*END

*D_NET *296 0.00591601
*CONN
*I *1489:A2 I *D sg13cmos5l_a21oi_1
*I *1488:Y O *D sg13cmos5l_a22oi_1
*CAP
1 *1489:A2 0.000612855
2 *1488:Y 0.000353776
3 *296:8 0.000966631
4 *1489:A2 *764:10 0.000143893
5 *296:8 *1488:A1 0.000235836
6 *296:8 *656:12 0.000106064
7 *296:8 *656:18 0.00167152
8 *296:8 *775:19 0.00161774
9 *1489:A1 *1489:A2 3.11364e-05
10 *32:10 *296:8 0
11 *202:103 *1489:A2 0.00017656
*RES
1 *1488:Y *296:8 48.5078 
2 *296:8 *1489:A2 45.2324 
*END

*D_NET *297 0.00356713
*CONN
*I *1490:B I *D sg13cmos5l_nor2_1
*I *1489:Y O *D sg13cmos5l_a21oi_1
*CAP
1 *1490:B 0.000565457
2 *1489:Y 0.000123559
3 *297:8 0.000689016
4 *1490:B *1800:CLK 0
5 *1490:B *1805:RESET_B 0
6 *1490:B *298:10 7.93152e-05
7 *1490:B *558:23 0.000788766
8 *1490:B *658:95 0
9 *297:8 *762:16 0.000660507
10 *27:12 *297:8 0.000660507
*RES
1 *1489:Y *297:8 43.0694 
2 *297:8 *1490:B 45.8607 
*END

*D_NET *298 0.00400911
*CONN
*I *1491:B1 I *D sg13cmos5l_o21ai_1
*I *1490:Y O *D sg13cmos5l_nor2_1
*CAP
1 *1491:B1 0.000278353
2 *1490:Y 0.000121358
3 *298:18 0.000817396
4 *298:10 0.000660402
5 *1491:B1 *543:10 1.54008e-05
6 *298:10 *1800:CLK 7.93152e-05
7 *298:10 *658:95 0.000394651
8 *298:10 *773:42 0.000395177
9 *298:18 *1488:B2 0.000183564
10 *298:18 *1805:RESET_B 0
11 *298:18 *762:16 0.000106064
12 *1488:A2 *298:18 0
13 *1490:B *298:10 7.93152e-05
14 *1491:A2 *1491:B1 0.000208615
15 *1805:D *298:18 0.000208576
16 *26:14 *298:18 0
17 *27:12 *298:18 7.51285e-05
18 *27:29 *298:18 4.77425e-05
19 *172:54 *1491:B1 0
20 *202:95 *298:18 0.000338048
21 *209:43 *298:18 0
*RES
1 *1490:Y *298:10 42.369 
2 *298:10 *298:18 45.768 
3 *298:18 *1491:B1 42.4823 
*END

*D_NET *299 0.00912066
*CONN
*I *1495:A2 I *D sg13cmos5l_a21oi_1
*I *1493:X O *D sg13cmos5l_xor2_1
*CAP
1 *1495:A2 9.43534e-05
2 *1493:X 0.00155932
3 *299:22 0.000868041
4 *299:16 0.00233301
5 *1495:A2 *1807:CLK 0.000177178
6 *299:16 *1826:CLK 0.000564823
7 *299:16 *1828:RESET_B 8.00954e-05
8 *299:16 *1828:CLK 0
9 *299:16 *300:24 0
10 *299:16 *564:18 0.000565311
11 *299:16 *564:20 0
12 *299:16 *564:48 0
13 *299:16 *674:20 0
14 *299:16 *674:22 0
15 *299:16 *674:26 0
16 *299:16 *682:14 0.000695407
17 *299:16 *724:10 0.000144911
18 *299:22 *300:32 0.00109134
19 *299:22 *550:37 0
20 *299:22 *663:69 0.000321483
21 *299:22 *663:79 0.000448209
22 *299:22 *676:65 0
23 *299:22 *713:10 0
24 *1495:A1 *1495:A2 0.000177178
25 *1834:A *299:16 0
26 *4:38 *299:16 0
27 *53:8 *299:22 0
28 *135:46 *299:22 0
*RES
1 *1493:X *299:16 35.9135 
2 *299:16 *299:22 49.4966 
3 *299:22 *1495:A2 21.1845 
*END

*D_NET *300 0.010915
*CONN
*I *1495:B1 I *D sg13cmos5l_a21oi_1
*I *1494:Y O *D sg13cmos5l_nor2_1
*CAP
1 *1495:B1 0.000146415
2 *1494:Y 0.000519135
3 *300:32 0.000925727
4 *300:24 0.00192974
5 *300:14 0.00166956
6 *300:14 *1742:B 0.000112552
7 *300:14 *308:72 0
8 *300:14 *364:32 0
9 *300:14 *561:70 0.000112151
10 *300:14 *663:79 0
11 *300:24 *1742:A 0.00103332
12 *300:24 *1828:CLK 0
13 *300:24 *1995:A 0.00023464
14 *300:24 *676:25 0
15 *300:24 *676:31 0.000306063
16 *300:24 *713:10 0
17 *300:24 *724:10 0
18 *300:24 *756:10 0
19 *300:32 *663:69 0.000343579
20 *300:32 *663:79 0.00103899
21 *1477:B1 *300:32 0.000450258
22 *1494:B *300:14 7.9225e-05
23 *1495:A1 *1495:B1 0
24 *1996:A *300:24 0
25 *3:23 *1495:B1 0.000209053
26 *3:23 *300:32 0.000713261
27 *180:24 *300:24 0
28 *287:29 *300:32 0
29 *299:16 *300:24 0
30 *299:22 *300:32 0.00109134
*RES
1 *1494:Y *300:14 45.0161 
2 *300:14 *300:24 32.5866 
3 *300:24 *300:32 31.8965 
4 *300:32 *1495:B1 41.4008 
*END

*D_NET *301 0.00571261
*CONN
*I *1497:B1 I *D sg13cmos5l_o21ai_1
*I *1496:Y O *D sg13cmos5l_nand2_1
*CAP
1 *1497:B1 0.000701027
2 *1496:Y 0.000454051
3 *301:8 0.00115508
4 *1497:B1 *1611:B1 0.000144582
5 *1497:B1 *302:12 7.96627e-05
6 *1497:B1 *337:18 0.000254439
7 *1497:B1 *337:28 1.54008e-05
8 *1497:B1 *413:10 0
9 *1497:B1 *636:20 0.000111344
10 *301:8 *1498:B 0
11 *301:8 *1564:A2 5.39693e-05
12 *301:8 *521:36 0.000717055
13 *301:8 *630:12 0.000236329
14 *301:8 *635:8 0.000960176
15 *301:8 *635:14 0.0001292
16 *301:8 *695:113 0.000615568
17 *1497:A2 *1497:B1 8.47267e-05
18 *1533:B *1497:B1 0
*RES
1 *1496:Y *301:8 47.7662 
2 *301:8 *1497:B1 46.7723 
*END

*D_NET *302 0.00620723
*CONN
*I *1498:B I *D sg13cmos5l_nand2_1
*I *1497:Y O *D sg13cmos5l_o21ai_1
*CAP
1 *1498:B 0.000469778
2 *1497:Y 0.00022531
3 *302:18 0.000821356
4 *302:12 0.000576888
5 *1498:B *1534:B 0
6 *1498:B *368:8 0.000175865
7 *1498:B *372:132 0
8 *1498:B *407:33 0.000876522
9 *1498:B *412:12 0.000235658
10 *1498:B *521:36 0.000822615
11 *1498:B *526:12 0
12 *1498:B *695:113 0.000507132
13 *302:12 *1601:A2 0.000130618
14 *302:12 *403:10 0.000130692
15 *302:12 *407:14 0.000144768
16 *302:18 *561:62 0
17 *1497:B1 *302:12 7.96627e-05
18 *1498:A *1498:B 0
19 *85:16 *302:18 0.000472713
20 *258:74 *302:18 0.000537653
21 *301:8 *1498:B 0
*RES
1 *1497:Y *302:12 42.5956 
2 *302:12 *302:18 44.2127 
3 *302:18 *1498:B 47.7147 
*END

*D_NET *303 0.00585308
*CONN
*I *1499:B I *D sg13cmos5l_xnor2_1
*I *1498:Y O *D sg13cmos5l_nand2_1
*CAP
1 *1499:B 0
2 *1498:Y 0.000220108
3 *303:26 8.1965e-05
4 *303:18 0.00145816
5 *303:12 0.00159631
6 *303:12 *308:93 0.000166831
7 *303:12 *368:8 0
8 *303:18 *1569:B 0.000128408
9 *303:18 *1569:D 0.000237097
10 *303:18 *1741:B 0
11 *303:18 *524:16 0.00173025
12 *303:18 *535:10 0
13 *303:18 *655:32 0
14 *303:18 *672:117 0
15 *303:18 *674:20 0
16 *303:18 *677:20 0
17 *303:26 *660:73 7.52158e-05
18 *303:26 *675:14 0
19 *303:26 *677:14 0
20 *1498:A *303:12 0.000143277
21 *1809:D *303:26 1.54556e-05
22 *4:38 *303:26 0
*RES
1 *1498:Y *303:12 42.2866 
2 *303:12 *303:18 36.7375 
3 *303:18 *303:26 40.8858 
4 *303:26 *1499:B 20 
*END

*D_NET *304 0.0032429
*CONN
*I *1502:A1 I *D sg13cmos5l_o21ai_1
*I *1500:Y O *D sg13cmos5l_nor3_1
*CAP
1 *1502:A1 5.30178e-05
2 *1500:Y 0.000919074
3 *304:8 0.000972092
4 *1502:A1 *305:28 8.0194e-05
5 *304:8 *1601:A2 0.000291888
6 *304:8 *660:62 0.000926634
7 *258:62 *304:8 0
*RES
1 *1500:Y *304:8 48.5078 
2 *304:8 *1502:A1 40.5356 
*END

*D_NET *305 0.00920297
*CONN
*I *1502:A2 I *D sg13cmos5l_o21ai_1
*I *1501:X O *D sg13cmos5l_and3_1
*CAP
1 *1502:A2 0
2 *1501:X 0.000197245
3 *305:28 0.00105639
4 *305:16 0.00122117
5 *305:10 0.000362028
6 *305:10 *546:21 0
7 *305:10 *675:40 0.000234224
8 *305:10 *765:13 0
9 *305:16 *1803:D 0
10 *305:16 *546:21 0
11 *305:28 *1601:B1 0
12 *305:28 *547:15 0
13 *305:28 *612:25 7.65602e-05
14 *305:28 *612:35 0.000130715
15 *305:28 *765:13 0
16 *1502:B1 *305:28 0.000207986
17 *1502:A1 *305:28 8.0194e-05
18 *86:8 *305:28 0.0020207
19 *86:14 *305:28 0.000181226
20 *180:73 *305:16 0.000241148
21 *202:16 *305:28 0.00317194
22 *202:33 *305:28 2.14475e-05
*RES
1 *1501:X *305:10 41.8437 
2 *305:10 *305:16 41.6171 
3 *305:16 *305:28 38.3443 
4 *305:28 *1502:A2 20 
*END

*D_NET *306 0.00607872
*CONN
*I *1503:B I *D sg13cmos5l_xnor2_1
*I *1502:Y O *D sg13cmos5l_o21ai_1
*CAP
1 *1503:B 0
2 *1502:Y 0.000469528
3 *306:20 0.000961982
4 *306:14 0.00143151
5 *306:14 *1601:A1 0
6 *306:14 *571:16 0
7 *306:14 *613:14 4.81157e-05
8 *306:20 *1484:B2 0.000305772
9 *306:20 *1812:RESET_B 0.000288675
10 *306:20 *571:8 0.000711927
11 *306:20 *571:16 0.000714834
12 *306:20 *613:14 0
13 *306:20 *656:70 1.54008e-05
14 *306:20 *674:43 0.000584094
15 *306:20 *767:15 0
16 *1533:A *306:14 0
17 *57:10 *306:14 0.000499076
18 *85:20 *306:14 4.78028e-05
19 *163:83 *306:20 0
20 *163:97 *306:14 0
21 *292:10 *306:20 0
*RES
1 *1502:Y *306:14 44.5853 
2 *306:14 *306:20 32.0407 
3 *306:20 *1503:B 20 
*END

*D_NET *307 0.0176732
*CONN
*I *1506:B I *D sg13cmos5l_nand2_1
*I *1516:A2 I *D sg13cmos5l_a21o_1
*I *1514:A1 I *D sg13cmos5l_a21oi_1
*I *1731:B I *D sg13cmos5l_nand3b_1
*I *1509:A I *D sg13cmos5l_nand2_1
*I *1508:A I *D sg13cmos5l_and2_1
*I *1559:A1 I *D sg13cmos5l_a21oi_1
*I *1517:C I *D sg13cmos5l_nand3_1
*I *1504:Y O *D sg13cmos5l_a221oi_1
*CAP
1 *1506:B 0.000811312
2 *1516:A2 0.000182664
3 *1514:A1 3.34444e-05
4 *1731:B 0.000346568
5 *1509:A 0
6 *1508:A 0.000177908
7 *1559:A1 0.000197699
8 *1517:C 2.89082e-05
9 *1504:Y 0.000581535
10 *307:91 0.000262557
11 *307:65 0.000256076
12 *307:37 0.000417656
13 *307:35 0.000480228
14 *307:33 0.000632458
15 *307:29 0.000520385
16 *307:27 0.000931352
17 *307:25 0.00171458
18 *307:12 0.000370973
19 *307:10 0.000581535
20 *1506:B *309:6 0
21 *1506:B *559:8 0
22 *1506:B *566:35 0
23 *1506:B *566:41 0.000169457
24 *1506:B *566:43 0.000176293
25 *1506:B *595:8 0.000305198
26 *1506:B *693:10 0.000110829
27 *1508:A *1508:B 0
28 *1508:A *1571:A1 0
29 *1508:A *1571:A2 0.000209572
30 *1508:A *1609:A 0
31 *1514:A1 *1514:A2 4.77425e-05
32 *1516:A2 *1516:B1 0
33 *1516:A2 *595:16 0
34 *1517:C *754:6 1.54556e-05
35 *1517:C *754:23 3.23636e-05
36 *1559:A1 *310:43 8.02379e-05
37 *1559:A1 *314:10 0.000398063
38 *1559:A1 *362:6 4.78192e-05
39 *1559:A1 *362:16 0
40 *1559:A1 *362:29 0.000112449
41 *1559:A1 *386:19 0
42 *1559:A1 *619:63 0.000236596
43 *1731:B *1511:A2 3.23417e-05
44 *1731:B *1561:A2 0
45 *1731:B *310:18 0
46 *1731:B *321:20 0
47 *1731:B *364:32 0
48 *1731:B *619:81 0.000111568
49 *307:10 *310:18 0
50 *307:10 *595:59 0
51 *307:10 *641:82 0.000393823
52 *307:10 *754:12 0.000606279
53 *307:25 *320:10 0
54 *307:25 *754:23 0.000410981
55 *307:25 *754:25 0.000106258
56 *307:25 *754:29 0.000341216
57 *307:27 *320:10 0
58 *307:27 *595:16 0
59 *307:27 *754:29 0.000768257
60 *307:29 *319:10 7.65602e-05
61 *307:29 *320:10 0
62 *307:29 *595:16 0
63 *307:33 *314:10 0.000236071
64 *307:33 *319:10 0
65 *307:33 *320:10 0.000319261
66 *307:35 *314:10 0.000929847
67 *307:35 *320:10 0.000149607
68 *307:35 *619:63 0.000692493
69 *307:37 *314:10 0.000236436
70 *307:37 *619:63 0.000214586
71 *307:65 *312:12 0.000276305
72 *307:65 *637:39 0
73 *307:65 *672:126 0.000472712
74 *307:91 *1244:A 0.00023616
75 *1346:B *307:10 0
76 *1477:A1 *307:10 0
77 *1477:A2 *307:10 0
78 *1504:B2 *307:10 0.000143932
79 *1504:B1 *307:10 0.000208725
80 *1506:A *1506:B 0
81 *1516:A1 *1516:A2 4.77425e-05
82 *283:40 *1517:C 1.54556e-05
83 *283:40 *307:10 0
84 *283:51 *1517:C 4.79124e-05
85 *283:51 *307:25 0.000128796
86 *286:8 *307:10 0
*RES
1 *1504:Y *307:10 47.1585 
2 *307:10 *307:12 20 
3 *307:12 *1517:C 20.3193 
4 *307:12 *307:25 24.2848 
5 *307:25 *307:27 5.5414 
6 *307:27 *307:29 1.5862 
7 *307:29 *307:33 1.9055 
8 *307:33 *307:35 4.3054 
9 *307:35 *307:37 1.0918 
10 *307:37 *1559:A1 42.8016 
11 *307:37 *1508:A 41.751 
12 *307:35 *307:65 43.1312 
13 *307:65 *1509:A 40 
14 *307:33 *1731:B 43.0488 
15 *307:29 *307:91 42.06 
16 *307:91 *1514:A1 40.3193 
17 *307:27 *1516:A2 41.7304 
18 *307:25 *1506:B 47.6529 
*END

*D_NET *308 0.0247771
*CONN
*I *1750:B I *D sg13cmos5l_nand2_1
*I *1741:B I *D sg13cmos5l_nand2_1
*I *1736:A2 I *D sg13cmos5l_a21o_1
*I *1754:B I *D sg13cmos5l_nand2_1
*I *1745:B I *D sg13cmos5l_nand2_1
*I *1737:B I *D sg13cmos5l_nand2_1
*I *1757:B I *D sg13cmos5l_nand2_1
*I *1759:B I *D sg13cmos5l_nand2_1
*I *1505:Y O *D sg13cmos5l_nand2b_1
*CAP
1 *1750:B 0
2 *1741:B 0.000586065
3 *1736:A2 1.88907e-05
4 *1754:B 0.000483956
5 *1745:B 0
6 *1737:B 6.05115e-05
7 *1757:B 0.0006174
8 *1759:B 0
9 *1505:Y 0.000919387
10 *308:93 0.00106236
11 *308:76 0.000860874
12 *308:74 0.000401063
13 *308:72 0.00203048
14 *308:60 0.00131133
15 *308:56 0.000842841
16 *308:37 0.00175799
17 *308:26 0.00108649
18 *308:16 0.001681
19 *1736:A2 *364:32 2.51839e-05
20 *1737:B *521:36 0.000112517
21 *1737:B *720:14 0.000112308
22 *1741:B *1738:B 0.000234592
23 *1741:B *1741:A 0.00011244
24 *1741:B *524:16 0
25 *1741:B *529:10 7.99828e-05
26 *1741:B *564:18 0
27 *1741:B *636:33 0
28 *1741:B *674:20 0
29 *1741:B *700:10 0.000905668
30 *1754:B *1745:A 0
31 *1754:B *1747:A 0
32 *1754:B *1748:B 0
33 *1754:B *1754:A 0
34 *1754:B *371:16 0.000145272
35 *1754:B *705:36 0
36 *1754:B *756:22 0
37 *1757:B *1600:A2 0
38 *1757:B *1830:CLK 0.00026645
39 *1757:B *1864:A 0.000241099
40 *1757:B *563:59 0.000289003
41 *1757:B *586:10 7.97166e-05
42 *1757:B *586:76 7.96143e-05
43 *1757:B *586:86 0
44 *1757:B *586:101 0.0001121
45 *1757:B *682:8 0
46 *1757:B *682:14 0
47 *1757:B *754:50 0
48 *308:16 *1788:RESET_B 0.000369903
49 *308:16 *310:10 0.000241999
50 *308:16 *641:72 0
51 *308:16 *726:10 0.000606693
52 *308:26 *1245:A 0
53 *308:26 *1789:RESET_B 0
54 *308:26 *1830:CLK 0.000208736
55 *308:26 *309:36 0.000711511
56 *308:26 *692:10 0.000607938
57 *308:26 *754:50 4.77425e-05
58 *308:37 *1830:CLK 0.000887206
59 *308:37 *542:12 0.000112525
60 *308:37 *682:14 0
61 *308:56 *313:29 0.000309418
62 *308:56 *586:18 0
63 *308:60 *595:37 3.24568e-05
64 *308:60 *712:14 0
65 *308:60 *712:16 0
66 *308:72 *1742:B 0
67 *308:72 *1742:A 8.00842e-05
68 *308:72 *1743:B 0
69 *308:72 *1751:B 0.000144999
70 *308:72 *1752:B1 0.000144261
71 *308:72 *521:8 0
72 *308:72 *523:14 0
73 *308:72 *561:70 0
74 *308:72 *563:98 0
75 *308:72 *595:37 0.000112667
76 *308:72 *663:79 0
77 *308:72 *712:16 0
78 *308:72 *712:35 0
79 *308:74 *700:10 0.000533552
80 *308:76 *700:10 0.000393981
81 *308:93 *1569:C 0
82 *308:93 *1570:A 4.77425e-05
83 *308:93 *368:8 0.000112149
84 *308:93 *371:16 0
85 *308:93 *372:10 0.000238276
86 *308:93 *756:22 0
87 *1498:A *308:74 0
88 *1498:A *308:76 0
89 *1498:A *308:93 0.000557142
90 *1506:A *308:37 0
91 *1507:A *308:16 0.000145074
92 *1507:B *308:16 0.000176567
93 *1789:D *308:26 0
94 *3:9 *308:37 0.000501045
95 *14:8 *308:16 2.22695e-05
96 *14:8 *308:26 0
97 *24:16 *308:72 0.000145009
98 *76:8 *308:16 0
99 *76:8 *308:26 0.000128991
100 *157:27 *308:16 0
101 *202:67 *308:93 0
102 *203:18 *308:93 0
103 *287:31 *308:72 0
104 *287:35 *1741:B 0.000182694
105 *287:35 *308:74 0.000291063
106 *300:14 *308:72 0
107 *303:12 *308:93 0.000166831
108 *303:18 *1741:B 0
*RES
1 *1505:Y *308:16 49.6043 
2 *308:16 *308:26 29.2803 
3 *308:26 *1759:B 20 
4 *308:26 *308:37 24.9337 
5 *308:37 *1757:B 46.7053 
6 *308:37 *308:56 49.1876 
7 *308:56 *308:60 20.3193 
8 *308:60 *308:72 32.0407 
9 *308:72 *308:74 2.575 
10 *308:74 *308:76 2.3278 
11 *308:76 *1737:B 40.7519 
12 *308:76 *308:93 26.5199 
13 *308:93 *1745:B 20 
14 *308:93 *1754:B 24.4496 
15 *308:74 *1736:A2 40.1699 
16 *308:72 *1741:B 48.0237 
17 *308:60 *1750:B 20 
*END

*D_NET *309 0.0076062
*CONN
*I *1760:A2 I *D sg13cmos5l_o21ai_1
*I *1510:A1 I *D sg13cmos5l_a21o_1
*I *1511:A1 I *D sg13cmos5l_a21oi_1
*I *1506:Y O *D sg13cmos5l_nand2_1
*CAP
1 *1760:A2 0
2 *1510:A1 0
3 *1511:A1 6.53497e-05
4 *1506:Y 0.00033532
5 *309:36 0.00019236
6 *309:12 0.000929213
7 *309:6 0.00139154
8 *1511:A1 *1510:A2 0.000235658
9 *1511:A1 *758:16 0.000288233
10 *309:12 *1985:A 8.00842e-05
11 *309:12 *310:18 0
12 *309:12 *559:8 0
13 *309:12 *584:21 0.000501044
14 *309:12 *676:38 0
15 *309:12 *712:10 0.00076619
16 *309:12 *758:16 0.000449879
17 *309:36 *1760:B1 8.01938e-05
18 *309:36 *1760:A1 1.54556e-05
19 *309:36 *1968:A 0
20 *1506:A *309:6 0.000482754
21 *1506:A *309:12 0.000369903
22 *1506:B *309:6 0
23 *14:8 *309:36 0.000711511
24 *308:26 *309:36 0.000711511
*RES
1 *1506:Y *309:6 23.3475 
2 *309:6 *309:12 30.2176 
3 *309:12 *1511:A1 41.339 
4 *309:12 *1510:A1 40 
5 *309:6 *309:36 43.8522 
6 *309:36 *1760:A2 20 
*END

*D_NET *310 0.00976161
*CONN
*I *1514:A2 I *D sg13cmos5l_a21oi_1
*I *1509:B I *D sg13cmos5l_nand2_1
*I *1559:A2 I *D sg13cmos5l_a21oi_1
*I *1508:B I *D sg13cmos5l_and2_1
*I *1507:X O *D sg13cmos5l_and2_1
*CAP
1 *1514:A2 7.12101e-05
2 *1509:B 0.000280113
3 *1559:A2 0
4 *1508:B 5.50346e-05
5 *1507:X 0.000254592
6 *310:43 0.000109858
7 *310:28 0.000472491
8 *310:22 0.000976938
9 *310:18 0.00221017
10 *310:10 0.00200432
11 *1508:B *1571:A1 8.01609e-05
12 *1509:B *1513:B 8.00842e-05
13 *1509:B *1586:A1 0
14 *1509:B *625:32 5.08996e-05
15 *1509:B *684:139 0
16 *310:10 *641:82 8.01609e-05
17 *310:18 *1510:A2 0
18 *310:18 *1517:A 0
19 *310:18 *314:10 7.91347e-05
20 *310:18 *584:21 0
21 *310:18 *634:10 0.000557736
22 *310:18 *712:10 0
23 *310:18 *754:12 0
24 *310:22 *1244:A 0.000557194
25 *310:22 *312:33 0
26 *310:22 *314:10 0
27 *310:22 *319:10 0.000338936
28 *310:22 *637:33 7.52158e-05
29 *310:28 *1571:A1 0.000160315
30 *310:28 *314:10 0
31 *310:28 *637:33 0.000450225
32 *310:43 *362:16 0.00023709
33 *310:43 *386:19 8.01609e-05
34 *310:43 *619:63 0.000129595
35 *1508:A *1508:B 0
36 *1514:A1 *1514:A2 4.77425e-05
37 *1559:A1 *310:43 8.02379e-05
38 *1731:B *310:18 0
39 *91:8 *310:22 0
40 *283:40 *310:18 0
41 *287:29 *310:18 0
42 *307:10 *310:18 0
43 *308:16 *310:10 0.000241999
44 *309:12 *310:18 0
*RES
1 *1507:X *310:10 42.6162 
2 *310:10 *310:18 36.8096 
3 *310:18 *310:22 24.5526 
4 *310:22 *310:28 23.2651 
5 *310:28 *1508:B 20.5356 
6 *310:28 *310:43 41.6274 
7 *310:43 *1559:A2 20 
8 *310:22 *1509:B 42.4823 
9 *310:18 *1514:A2 20.7519 
*END

*D_NET *311 0.0175965
*CONN
*I *1571:A1 I *D sg13cmos5l_o21ai_1
*I *1609:A I *D sg13cmos5l_nand2_1
*I *1608:A I *D sg13cmos5l_and2_1
*I *1720:B1 I *D sg13cmos5l_o21ai_1
*I *1597:B I *D sg13cmos5l_and3_1
*I *1726:A I *D sg13cmos5l_nor2_1
*I *1656:A I *D sg13cmos5l_nor2_1
*I *1714:B1 I *D sg13cmos5l_a21oi_1
*I *1508:X O *D sg13cmos5l_and2_1
*CAP
1 *1571:A1 0.000314012
2 *1609:A 0.000157877
3 *1608:A 0.000102585
4 *1720:B1 0
5 *1597:B 9.53424e-05
6 *1726:A 0
7 *1656:A 0
8 *1714:B1 0.000258116
9 *1508:X 1.7441e-05
10 *311:120 0.000502581
11 *311:100 0.000507704
12 *311:73 0.000793717
13 *311:66 0.000410553
14 *311:53 0.00127802
15 *311:45 0.00148252
16 *311:30 0.000681141
17 *311:22 0.000812283
18 *311:18 0.00120726
19 *311:12 0.00109869
20 *311:6 0.000241625
21 *1571:A1 *1571:A2 0
22 *1571:A1 *1584:A 0.000112558
23 *1571:A1 *386:19 0
24 *1571:A1 *619:63 0.000143171
25 *1597:B *1597:C 0
26 *1608:A *386:19 0
27 *1608:A *563:83 0
28 *1609:A *1571:A2 0
29 *1609:A *386:19 0
30 *1714:B1 *1580:A 9.7025e-05
31 *1714:B1 *1581:A_N 0.000112426
32 *1714:B1 *1718:A 0
33 *1714:B1 *1718:B 0
34 *1714:B1 *373:51 0
35 *1714:B1 *646:90 8.00842e-05
36 *311:6 *386:19 4.77425e-05
37 *311:12 *314:10 0
38 *311:12 *361:14 0
39 *311:12 *362:16 0
40 *311:12 *642:26 0
41 *311:18 *358:16 0
42 *311:18 *361:14 0
43 *311:18 *363:16 0
44 *311:18 *385:29 0
45 *311:18 *619:10 0
46 *311:18 *642:26 0
47 *311:18 *642:36 0.00028745
48 *311:22 *385:29 0.000876876
49 *311:22 *408:35 0.000749207
50 *311:30 *385:29 0.00146286
51 *311:30 *408:35 0.000394702
52 *311:30 *503:10 0.000985043
53 *311:30 *646:90 0.000146301
54 *311:45 *644:95 0
55 *311:53 *1523:B 0
56 *311:53 *1527:B 0
57 *311:53 *1527:C 0
58 *311:53 *1550:B 8.00842e-05
59 *311:53 *1679:B_N 0
60 *311:53 *1680:A 0
61 *311:53 *1691:B1 0
62 *311:53 *1692:B 0.00027331
63 *311:53 *1883:A 0
64 *311:53 *326:12 8.00842e-05
65 *311:53 *354:8 0
66 *311:53 *365:88 1.54008e-05
67 *311:53 *398:10 1.5412e-05
68 *311:53 *576:48 0
69 *311:53 *578:44 0
70 *311:53 *648:95 0
71 *311:53 *650:12 0
72 *311:53 *756:36 0.000402162
73 *311:66 *517:12 4.78192e-05
74 *311:100 *1597:C 9.22738e-05
75 *311:100 *1720:A2 0.000111839
76 *311:100 *1722:B1 4.77154e-05
77 *311:100 *314:29 0.000181192
78 *311:100 *400:33 0
79 *311:100 *519:10 0.000181192
80 *311:120 *386:19 1.4508e-06
81 *1508:A *1571:A1 0
82 *1508:A *1609:A 0
83 *1508:B *1571:A1 8.01609e-05
84 *1597:A *311:73 0
85 *1720:A1 *311:100 0.000369222
86 *51:25 *311:100 0
87 *310:28 *1571:A1 0.000160315
*RES
1 *1508:X *311:6 20.3193 
2 *311:6 *311:12 21.9055 
3 *311:12 *311:18 27.4984 
4 *311:18 *311:22 24.0582 
5 *311:22 *311:30 48.1782 
6 *311:30 *1714:B1 42.4823 
7 *311:22 *311:45 42.0247 
8 *311:45 *311:53 32.051 
9 *311:53 *1656:A 20 
10 *311:18 *311:66 42.1527 
11 *311:66 *1726:A 20 
12 *311:66 *311:73 1.5965 
13 *311:73 *1597:B 21.115 
14 *311:73 *311:100 46.0873 
15 *311:100 *1720:B1 20 
16 *311:12 *1608:A 40.7519 
17 *311:6 *311:120 0.5665 
18 *311:120 *1609:A 21.3905 
19 *311:120 *1571:A1 23.3063 
*END

*D_NET *312 0.0150621
*CONN
*I *1758:A2 I *D sg13cmos5l_o21ai_1
*I *1614:A1 I *D sg13cmos5l_a21oi_1
*I *1617:A1 I *D sg13cmos5l_a221oi_1
*I *1867:A I *D sg13cmos5l_buf_1
*I *1509:Y O *D sg13cmos5l_nand2_1
*CAP
1 *1758:A2 0.000520358
2 *1614:A1 9.6414e-05
3 *1617:A1 0
4 *1867:A 0.000372389
5 *1509:Y 0
6 *312:64 0.00111115
7 *312:51 0.000371459
8 *312:37 0.00240665
9 *312:33 0.001953
10 *312:12 0.00149241
11 *312:6 0.000707839
12 *1614:A1 *1614:A2 4.77425e-05
13 *1614:A1 *1619:B1 4.76053e-05
14 *1758:A2 *625:32 0.000662358
15 *1758:A2 *691:12 0
16 *1867:A *314:10 0
17 *1867:A *386:8 0.000181096
18 *1867:A *619:53 0
19 *1867:A *637:33 0.000395248
20 *312:12 *637:39 0
21 *312:33 *1563:A 0
22 *312:33 *1599:B 0
23 *312:33 *1734:C 0
24 *312:33 *1755:B1 0.000208747
25 *312:33 *1756:B1 0.000434064
26 *312:33 *1829:RESET_B 0.000144299
27 *312:33 *410:71 0
28 *312:33 *540:10 2.34933e-05
29 *312:33 *619:81 0
30 *312:33 *637:33 0.000107498
31 *312:33 *642:18 0.00036987
32 *312:33 *642:26 0
33 *312:33 *758:26 0
34 *312:37 *410:75 0.00148404
35 *312:37 *660:83 0
36 *312:37 *672:105 0
37 *312:37 *672:126 0
38 *312:51 *1238:A 0
39 *312:51 *1258:A 1.54008e-05
40 *312:51 *1617:A2 1.27224e-05
41 *312:51 *1618:B1 3.7732e-05
42 *312:51 *417:14 0.000397632
43 *312:51 *612:35 0
44 *312:51 *660:83 0.000236633
45 *312:64 *338:18 0
46 *312:64 *571:39 0
47 *312:64 *572:27 0.000178985
48 *312:64 *611:10 7.65627e-05
49 *312:64 *635:65 0
50 *312:64 *655:69 0
51 *312:64 *689:24 7.52158e-05
52 *1264:A_N *312:51 0.000127797
53 *1813:D *1614:A1 1.52636e-05
54 *81:42 *312:64 0.000474108
55 *98:20 *312:64 0
56 *203:33 *312:37 0
57 *307:65 *312:12 0.000276305
58 *310:22 *312:33 0
*RES
1 *1509:Y *312:6 40 
2 *312:6 *312:12 41.8334 
3 *312:12 *1867:A 43.5638 
4 *312:12 *312:33 49.2803 
5 *312:33 *312:37 31.2167 
6 *312:37 *312:51 44.6041 
7 *312:51 *1617:A1 20 
8 *312:37 *312:64 30.8871 
9 *312:64 *1614:A1 40.9682 
10 *312:6 *1758:A2 45.1191 
*END

*D_NET *313 0.0119978
*CONN
*I *1619:A2 I *D sg13cmos5l_a22oi_1
*I *1864:A I *D sg13cmos5l_buf_1
*I *1510:X O *D sg13cmos5l_a21o_1
*CAP
1 *1619:A2 0
2 *1864:A 0.000156949
3 *1510:X 4.08763e-05
4 *313:37 0.000357062
5 *313:29 0.00273312
6 *313:16 0.000770494
7 *313:8 0.00303048
8 *1864:A *1245:A 0
9 *1864:A *625:32 0
10 *313:8 *320:10 0.000236593
11 *313:8 *758:16 0.000214408
12 *313:16 *320:10 0.000523574
13 *313:16 *321:31 0
14 *313:16 *586:18 0
15 *313:16 *619:63 4.78911e-05
16 *313:16 *758:16 0.000341925
17 *313:29 *413:16 0
18 *313:29 *561:62 0.00178475
19 *313:29 *586:18 0
20 *313:29 *655:22 0
21 *313:29 *655:32 0
22 *1262:A2 *313:37 0.000714563
23 *1757:B *1864:A 0.000241099
24 *1813:D *313:37 0
25 *40:10 *313:37 0.000129491
26 *81:24 *313:37 0.000289819
27 *98:20 *313:37 7.5299e-05
28 *308:56 *313:29 0.000309418
*RES
1 *1510:X *313:8 41.0918 
2 *313:8 *313:16 46.5714 
3 *313:16 *1864:A 41.6171 
4 *313:8 *313:29 44.5449 
5 *313:29 *313:37 44.8101 
6 *313:37 *1619:A2 20 
*END

*D_NET *314 0.01051
*CONN
*I *1915:A I *D sg13cmos5l_buf_1
*I *1729:A I *D sg13cmos5l_nand2_1
*I *1730:A1 I *D sg13cmos5l_a22oi_1
*I *1511:Y O *D sg13cmos5l_a21oi_1
*CAP
1 *1915:A 0.00041928
2 *1729:A 0
3 *1730:A1 0
4 *1511:Y 0.000759784
5 *314:29 0.00123977
6 *314:23 0.0020614
7 *314:14 0.000731936
8 *314:10 0.00108937
9 *1915:A *563:50 0
10 *1915:A *563:59 0
11 *1915:A *596:10 0
12 *1915:A *695:10 0.00021413
13 *1915:A *706:30 0
14 *314:10 *319:10 0.000391968
15 *314:10 *361:14 0
16 *314:10 *619:53 0
17 *314:14 *362:29 0
18 *314:14 *520:20 0.000305088
19 *314:14 *563:22 0
20 *314:23 *520:20 3.23417e-05
21 *314:23 *563:22 0
22 *314:23 *594:35 0
23 *314:23 *596:10 0
24 *314:29 *1722:A1 1.54008e-05
25 *314:29 *519:10 0
26 *314:29 *563:26 0
27 *314:29 *563:50 0
28 *314:29 *570:14 0.00023547
29 *314:29 *594:69 0.000290187
30 *314:29 *695:10 0.000663122
31 *1559:A1 *314:10 0.000398063
32 *1867:A *314:10 0
33 *1926:A *314:23 0
34 *51:25 *314:29 0
35 *79:8 *314:23 0
36 *307:33 *314:10 0.000236071
37 *307:35 *314:10 0.000929847
38 *307:37 *314:10 0.000236436
39 *310:18 *314:10 7.91347e-05
40 *310:22 *314:10 0
41 *310:28 *314:10 0
42 *311:12 *314:10 0
43 *311:100 *314:29 0.000181192
*RES
1 *1511:Y *314:10 49.2906 
2 *314:10 *314:14 22.9149 
3 *314:14 *1730:A1 20 
4 *314:14 *314:23 23.1942 
5 *314:23 *314:29 31.639 
6 *314:29 *1729:A 20 
7 *314:23 *1915:A 43.6977 
*END

*D_NET *315 0.00331447
*CONN
*I *1600:B1 I *D sg13cmos5l_o21ai_1
*I *1512:Y O *D sg13cmos5l_nand2_1
*CAP
1 *1600:B1 0.000114266
2 *1512:Y 0.000502872
3 *315:14 0.000617137
4 *1600:B1 *1600:A2 0.000177053
5 *1600:B1 *586:10 0
6 *315:14 *1245:A 0.000873657
7 *315:14 *1512:A 0.000506572
8 *315:14 *321:31 0
9 *315:14 *586:10 0.000181366
10 *315:14 *625:32 0
11 *315:14 *655:12 0.000341544
12 *315:14 *691:12 0
13 *315:14 *692:10 0
*RES
1 *1512:Y *315:14 47.21 
2 *315:14 *1600:B1 41.1845 
*END

*D_NET *316 0.000821358
*CONN
*I *1563:A I *D sg13cmos5l_nand2_1
*I *1571:B1 I *D sg13cmos5l_o21ai_1
*I *1513:Y O *D sg13cmos5l_xnor2_1
*CAP
1 *1563:A 0.000248932
2 *1571:B1 7.55344e-05
3 *1513:Y 5.12541e-05
4 *316:6 0.00037572
5 *1563:A *1571:A2 0
6 *1563:A *1755:A2 0
7 *1571:B1 *1571:A2 6.99179e-05
8 *1571:B1 *1586:A1 0
9 *316:6 *1599:B 0
10 *312:33 *1563:A 0
*RES
1 *1513:Y *316:6 20.5974 
2 *316:6 *1571:B1 20.9167 
3 *316:6 *1563:A 22.0497 
*END

*D_NET *317 0.00180705
*CONN
*I *1518:B1 I *D sg13cmos5l_a21oi_1
*I *1561:C1 I *D sg13cmos5l_a221oi_1
*I *1514:Y O *D sg13cmos5l_a21oi_1
*CAP
1 *1518:B1 0
2 *1561:C1 0.000316148
3 *1514:Y 0.000363844
4 *317:16 0.000679992
5 *1561:C1 *1244:A 8.00842e-05
6 *1561:C1 *1561:B2 1.54008e-05
7 *1561:C1 *1561:A1 0
8 *1561:C1 *321:8 4.74263e-05
9 *1561:C1 *362:16 0
10 *1561:C1 *642:18 0.000207986
11 *317:16 *1518:A2 0
12 *317:16 *642:18 9.61659e-05
*RES
1 *1514:Y *317:16 23.4042 
2 *317:16 *1561:C1 23.3166 
3 *317:16 *1518:B1 20 
*END

*D_NET *318 0.00147967
*CONN
*I *1516:B1 I *D sg13cmos5l_a21o_1
*I *1515:Y O *D sg13cmos5l_nand2b_1
*CAP
1 *1516:B1 0.000571468
2 *1515:Y 0.000571468
3 *1516:B1 *1515:B 0
4 *1516:B1 *583:10 0
5 *1516:B1 *655:18 4.78356e-05
6 *1516:B1 *758:8 0.000241066
7 *1516:A2 *1516:B1 0
8 *1516:A1 *1516:B1 4.78356e-05
*RES
1 *1515:Y *1516:B1 45.8504 
*END

*D_NET *319 0.00210129
*CONN
*I *1518:A1 I *D sg13cmos5l_a21oi_1
*I *1561:A1 I *D sg13cmos5l_a221oi_1
*I *1516:X O *D sg13cmos5l_a21o_1
*CAP
1 *1518:A1 9.34468e-05
2 *1561:A1 0.00021117
3 *1516:X 0.000195775
4 *319:12 0.000304617
5 *319:10 0.000195775
6 *1518:A1 *1518:A2 0.00016526
7 *1561:A1 *1518:A2 3.17099e-05
8 *1561:A1 *1561:A2 0
9 *1561:A1 *362:16 4.78359e-05
10 *1561:A1 *364:32 0
11 *319:10 *1244:A 0
12 *319:10 *595:16 4.82343e-05
13 *1561:C1 *1561:A1 0
14 *307:29 *319:10 7.65602e-05
15 *307:33 *319:10 0
16 *310:22 *319:10 0.000338936
17 *314:10 *319:10 0.000391968
*RES
1 *1516:X *319:10 42.8763 
2 *319:10 *319:12 20 
3 *319:12 *1561:A1 21.975 
4 *319:12 *1518:A1 21.1922 
*END

*D_NET *320 0.00497226
*CONN
*I *1518:A2 I *D sg13cmos5l_a21oi_1
*I *1561:A2 I *D sg13cmos5l_a221oi_1
*I *1517:Y O *D sg13cmos5l_nand3_1
*CAP
1 *1518:A2 0.000187554
2 *1561:A2 8.41588e-05
3 *1517:Y 0
4 *320:10 0.00138978
5 *320:6 0.00111806
6 *1518:A2 *364:32 0
7 *320:10 *1517:A 0
8 *320:10 *1985:A 0.000766706
9 *320:10 *584:21 0
10 *320:10 *758:16 0
11 *1518:A1 *1518:A2 0.00016526
12 *1561:A1 *1518:A2 3.17099e-05
13 *1561:A1 *1561:A2 0
14 *1731:B *1561:A2 0
15 *307:25 *320:10 0
16 *307:27 *320:10 0
17 *307:29 *320:10 0
18 *307:33 *320:10 0.000319261
19 *307:35 *320:10 0.000149607
20 *313:8 *320:10 0.000236593
21 *313:16 *320:10 0.000523574
22 *317:16 *1518:A2 0
*RES
1 *1517:Y *320:6 40 
2 *320:6 *320:10 31.5643 
3 *320:10 *1561:A2 20.7133 
4 *320:10 *1518:A2 21.8102 
*END

*D_NET *321 0.00821508
*CONN
*I *1728:S I *D sg13cmos5l_mux2_1
*I *1914:A I *D sg13cmos5l_buf_1
*I *1727:S I *D sg13cmos5l_mux2_1
*I *1731:C I *D sg13cmos5l_nand3b_1
*I *1518:Y O *D sg13cmos5l_a21oi_1
*CAP
1 *1728:S 5.61002e-05
2 *1914:A 0.000314625
3 *1727:S 0
4 *1731:C 0
5 *1518:Y 3.5e-05
6 *321:39 0.000660281
7 *321:31 0.00131435
8 *321:20 0.000494642
9 *321:10 0.00140724
10 *321:8 3.5e-05
11 *1914:A *1727:A0 1.54008e-05
12 *1914:A *695:10 4.71556e-05
13 *321:20 *1731:A_N 0.000144697
14 *321:20 *1751:A_N 0
15 *321:20 *586:18 0
16 *321:20 *619:63 0.000145924
17 *321:20 *619:67 0
18 *321:20 *619:81 0.000283481
19 *321:31 *1598:C 0
20 *321:31 *594:16 0.000712439
21 *321:31 *625:32 0
22 *321:31 *637:39 0
23 *321:31 *695:131 7.5032e-05
24 *321:31 *706:10 0.000554449
25 *321:39 *1727:A0 0.00017628
26 *321:39 *519:10 0.000240957
27 *1561:C1 *321:8 4.74263e-05
28 *1583:A *1728:S 8.00842e-05
29 *1725:B1 *321:39 0.000340374
30 *1731:B *321:20 0
31 *1875:A *321:31 0.00103414
32 *51:6 *1914:A 0
33 *313:16 *321:31 0
34 *315:14 *321:31 0
*RES
1 *1518:Y *321:8 40.3193 
2 *321:8 *321:10 20 
3 *321:10 *321:20 45.0676 
4 *321:20 *1731:C 20 
5 *321:10 *321:31 31.3918 
6 *321:31 *321:39 23.9552 
7 *321:39 *1727:S 20 
8 *321:39 *1914:A 22.9973 
9 *321:31 *1728:S 40.5356 
*END

*D_NET *322 0.00714508
*CONN
*I *1558:B I *D sg13cmos5l_nand3_1
*I *1568:D I *D sg13cmos5l_nand4_1
*I *1557:A I *D sg13cmos5l_nand2_1
*I *1702:A I *D sg13cmos5l_and2_1
*I *1519:X O *D sg13cmos5l_and2_1
*CAP
1 *1558:B 0.00032508
2 *1568:D 0.000627486
3 *1557:A 9.61533e-05
4 *1702:A 0.000314688
5 *1519:X 0
6 *322:36 0.00147934
7 *322:8 0.000466262
8 *322:6 0.000582196
9 *1558:B *1558:C 0.000127827
10 *1558:B *1558:A 0.000342638
11 *1558:B *361:14 0
12 *1558:B *385:29 0
13 *1558:B *386:8 0.000128824
14 *1558:B *520:20 0
15 *1558:B *643:20 5.39693e-05
16 *1568:D *1568:C 0.000304917
17 *1702:A *1702:B 0.000255798
18 *1702:A *516:18 0.000181279
19 *1702:A *520:14 0.000245963
20 *1702:A *520:20 0
21 *1702:A *642:54 0.000290261
22 *322:8 *1560:A 7.51285e-05
23 *322:8 *516:18 0.000287672
24 *322:8 *642:54 0.000212862
25 *322:36 *1560:A 0.000266336
26 *322:36 *516:18 0.000394663
27 *322:36 *517:12 0
28 *322:36 *520:20 0
29 *322:36 *643:20 2.25909e-05
30 *1583:A *1558:B 6.31433e-05
*RES
1 *1519:X *322:6 40 
2 *322:6 *322:8 1.339 
3 *322:8 *1702:A 43.9449 
4 *322:8 *1557:A 40.7519 
5 *322:6 *322:36 5.047 
6 *322:36 *1568:D 43.9449 
7 *322:36 *1558:B 43.9243 
*END

*D_NET *323 0.00194824
*CONN
*I *1552:B I *D sg13cmos5l_and2_1
*I *1553:B I *D sg13cmos5l_xnor2_1
*I *1520:Y O *D sg13cmos5l_nand2_1
*CAP
1 *1552:B 0
2 *1553:B 0
3 *1520:Y 0.000221271
4 *323:23 0.00032399
5 *323:10 0.00054526
6 *323:10 *1520:A 0.000112098
7 *323:10 *1568:B 0
8 *323:10 *324:12 4.79124e-05
9 *323:10 *574:43 0
10 *323:23 *1552:A 0
11 *323:23 *1568:B 0.00024116
12 *323:23 *324:12 0
13 *323:23 *355:8 0
14 *323:23 *371:10 0.000273507
15 *323:23 *411:8 0
16 *323:23 *642:26 0
17 *323:23 *684:24 0.00018304
*RES
1 *1520:Y *323:10 22.3175 
2 *323:10 *1553:B 20 
3 *323:10 *323:23 43.605 
4 *323:23 *1552:B 20 
*END

*D_NET *324 0.00160013
*CONN
*I *1555:B1 I *D sg13cmos5l_o21ai_1
*I *1521:Y O *D sg13cmos5l_nand3_1
*CAP
1 *1555:B1 0.000254141
2 *1521:Y 0.000238683
3 *324:12 0.000492825
4 *1555:B1 *1555:A2 1.54008e-05
5 *1555:B1 *1568:B 0.000246154
6 *1555:B1 *356:12 0
7 *1555:B1 *574:43 0
8 *324:12 *1520:A 0
9 *324:12 *1552:A 4.77863e-05
10 *324:12 *1553:A 0.000128408
11 *324:12 *371:10 0.000128821
12 *324:12 *410:16 0
13 *324:12 *585:56 0
14 *323:10 *324:12 4.79124e-05
15 *323:23 *324:12 0
*RES
1 *1521:Y *324:12 42.6883 
2 *324:12 *1555:B1 42.5029 
*END

*D_NET *325 0.00677497
*CONN
*I *1550:B I *D sg13cmos5l_xnor2_1
*I *1523:B I *D sg13cmos5l_nor2_1
*I *1549:B I *D sg13cmos5l_nand2_1
*I *1522:Y O *D sg13cmos5l_nand2_1
*CAP
1 *1550:B 4.37077e-05
2 *1523:B 0.000241038
3 *1549:B 0.000117811
4 *1522:Y 0.000644315
5 *325:20 0.000434269
6 *325:18 0.000545688
7 *325:14 0.00107087
8 *1523:B *326:12 1.54556e-05
9 *1523:B *576:48 0.000144231
10 *1549:B *352:8 0
11 *1549:B *648:110 0.000182279
12 *1549:B *699:20 2.25909e-05
13 *1550:B *648:110 8.00842e-05
14 *325:14 *1524:A 0
15 *325:14 *1666:B 2.20966e-05
16 *325:14 *349:21 0.000341534
17 *325:14 *350:8 0
18 *325:14 *353:38 0.000129592
19 *325:14 *371:16 0
20 *325:14 *396:12 0.000817771
21 *325:14 *462:12 0.00110829
22 *325:14 *630:119 7.97663e-05
23 *325:14 *677:30 0.000288405
24 *325:18 *1594:A1 0
25 *325:18 *352:8 0
26 *325:18 *354:16 0
27 *325:18 *647:74 0
28 *325:18 *673:16 0.000236681
29 *325:20 *648:110 0.000128406
30 *83:14 *1523:B 0
31 *311:53 *1523:B 0
32 *311:53 *1550:B 8.00842e-05
*RES
1 *1522:Y *325:14 49.8674 
2 *325:14 *325:18 3.8831 
3 *325:18 *325:20 0.8446 
4 *325:20 *1549:B 41.3802 
5 *325:20 *1523:B 42.266 
6 *325:18 *1550:B 40.5356 
*END

*D_NET *326 0.000878046
*CONN
*I *1551:B1 I *D sg13cmos5l_a21oi_1
*I *1523:Y O *D sg13cmos5l_nor2_1
*CAP
1 *1551:B1 0
2 *1523:Y 0.000218956
3 *326:12 0.000218956
4 *326:12 *1866:A 0
5 *326:12 *332:14 0.000344593
6 *326:12 *576:48 0
7 *1523:B *326:12 1.54556e-05
8 *311:53 *326:12 8.00842e-05
*RES
1 *1523:Y *326:12 42.472 
2 *326:12 *1551:B1 40 
*END

*D_NET *327 0.0011634
*CONN
*I *1547:B I *D sg13cmos5l_xor2_1
*I *1546:B I *D sg13cmos5l_nand2_1
*I *1524:Y O *D sg13cmos5l_nand2_1
*CAP
1 *1547:B 0.000193256
2 *1546:B 0.000211335
3 *1524:Y 0
4 *327:4 0.000404592
5 *1546:B *1520:A 0
6 *1546:B *1524:A 0
7 *1546:B *1524:B 0.000112815
8 *1546:B *1546:A 0
9 *1546:B *630:134 0
10 *1547:B *1524:A 0.000241407
11 *1547:B *1524:B 0
*RES
1 *1524:Y *327:4 20 
2 *327:4 *1546:B 22.5647 
3 *327:4 *1547:B 21.9673 
*END

*D_NET *328 0.000359888
*CONN
*I *1548:B1 I *D sg13cmos5l_o21ai_1
*I *1525:Y O *D sg13cmos5l_nand3_1
*CAP
1 *1548:B1 0.000121423
2 *1525:Y 0.000121423
3 *1548:B1 *350:12 1.54008e-05
4 *1548:B1 *350:22 0.000101641
5 *1548:B1 *371:16 0
*RES
1 *1525:Y *1548:B1 41.3802 
*END

*D_NET *329 0.00389945
*CONN
*I *1543:B I *D sg13cmos5l_and2_1
*I *1544:B I *D sg13cmos5l_xnor2_1
*I *1526:Y O *D sg13cmos5l_nand2_1
*CAP
1 *1543:B 0
2 *1544:B 0
3 *1526:Y 0.0003497
4 *329:25 0.000240349
5 *329:12 0.000270191
6 *329:8 0.000379543
7 *329:8 *331:8 0.00028632
8 *329:8 *338:82 0
9 *329:8 *365:88 0.000238031
10 *329:8 *453:8 0.000499603
11 *329:8 *460:8 0.000399758
12 *329:8 *756:36 0.000613429
13 *329:12 *1544:A 4.77425e-05
14 *329:12 *1545:A1 0
15 *329:25 *1544:A 1.54008e-05
16 *329:25 *1545:A2 0
17 *329:25 *346:14 4.73361e-05
18 *329:25 *346:29 0.000122871
19 *329:25 *370:19 0
20 *329:25 *394:14 0.000181325
21 *329:25 *650:12 0
22 *329:25 *674:14 0.000207854
*RES
1 *1526:Y *329:8 46.0358 
2 *329:8 *329:12 20.3193 
3 *329:12 *1544:B 20 
4 *329:12 *329:25 42.678 
5 *329:25 *1543:B 20 
*END

*D_NET *330 0.00222543
*CONN
*I *1528:A I *D sg13cmos5l_inv_1
*I *1527:Y O *D sg13cmos5l_nand3_1
*CAP
1 *1528:A 0.000233078
2 *1527:Y 0.000183802
3 *330:8 0.00041688
4 *1528:A *673:20 0.000337221
5 *330:8 *1654:B 0
6 *330:8 *394:14 0.000393929
7 *330:8 *452:8 0.000660522
*RES
1 *1527:Y *330:8 43.0694 
2 *330:8 *1528:A 42.266 
*END

*D_NET *331 0.00126297
*CONN
*I *1545:B1 I *D sg13cmos5l_a21oi_1
*I *1528:Y O *D sg13cmos5l_inv_1
*CAP
1 *1545:B1 5.65503e-05
2 *1528:Y 0.000288244
3 *331:8 0.000344794
4 *1545:B1 *1545:A1 0
5 *1545:B1 *1545:A2 0
6 *1545:B1 *348:14 0
7 *331:8 *338:82 0
8 *331:8 *453:8 0
9 *331:8 *654:134 0.000287061
10 *329:8 *331:8 0.00028632
*RES
1 *1528:Y *331:8 43.0694 
2 *331:8 *1545:B1 40.4815 
*END

*D_NET *332 0.0165795
*CONN
*I *1540:B I *D sg13cmos5l_and2_1
*I *1530:B I *D sg13cmos5l_or2_1
*I *1539:B I *D sg13cmos5l_nand2_1
*I *1541:B I *D sg13cmos5l_xnor2_1
*I *1529:Y O *D sg13cmos5l_o21ai_1
*CAP
1 *1540:B 0
2 *1530:B 2.43561e-05
3 *1539:B 0.00068252
4 *1541:B 0
5 *1529:Y 0.000598848
6 *332:35 0.000872439
7 *332:31 0.000165563
8 *332:24 0.000244943
9 *332:14 0.00295184
10 *332:8 0.00330575
11 *1539:B *1643:B 0.000287624
12 *1539:B *1644:A1 0
13 *1539:B *1658:A2 0.000267531
14 *1539:B *1661:B2 0.000128113
15 *1539:B *372:49 0
16 *1539:B *378:28 0
17 *1539:B *428:12 0.00026842
18 *1539:B *457:8 0.000129681
19 *1539:B *458:10 0
20 *1539:B *585:31 0
21 *1539:B *633:12 7.54629e-05
22 *1539:B *695:74 0
23 *332:8 *1529:B1 0.000338323
24 *332:8 *1739:B 0
25 *332:8 *1744:A1 0
26 *332:14 *1525:C 0
27 *332:14 *1551:A1 0.000660599
28 *332:14 *1866:A 0
29 *332:14 *351:8 0.00133301
30 *332:14 *365:75 0
31 *332:14 *365:128 8.09067e-05
32 *332:14 *532:8 0.000500774
33 *332:14 *544:11 0
34 *332:14 *544:15 0
35 *332:14 *574:22 0.000983937
36 *332:14 *575:31 0
37 *332:14 *585:56 0
38 *332:14 *699:12 0
39 *332:14 *756:26 0
40 *332:24 *1259:A 6.39133e-05
41 *332:24 *340:18 0.000147605
42 *332:24 *365:128 0.00027752
43 *332:24 *699:12 0
44 *332:35 *333:16 4.81157e-05
45 *332:35 *378:28 0
46 *1502:B1 *332:8 0.000466944
47 *1629:B1 *1539:B 0
48 *1629:B1 *332:35 0
49 *52:8 *332:8 0
50 *72:8 *332:14 0.0011991
51 *82:8 *332:24 0.000131027
52 *110:18 *1539:B 0
53 *180:24 *332:14 0
54 *287:31 *332:8 0
55 *326:12 *332:14 0.000344593
*RES
1 *1529:Y *332:8 45.9431 
2 *332:8 *332:14 49.7773 
3 *332:14 *332:24 42.8582 
4 *332:24 *1541:B 20 
5 *332:14 *332:31 20 
6 *332:31 *332:35 1.6583 
7 *332:35 *1539:B 47.9413 
8 *332:35 *1530:B 40.3193 
9 *332:31 *1540:B 40 
*END

*D_NET *333 0.00146009
*CONN
*I *1542:B1 I *D sg13cmos5l_o21ai_1
*I *1530:X O *D sg13cmos5l_or2_1
*CAP
1 *1542:B1 2.99958e-05
2 *1530:X 0.000287268
3 *333:16 0.000317264
4 *1542:B1 *1542:A2 4.77425e-05
5 *333:16 *343:8 0.000182624
6 *333:16 *365:96 0.000235656
7 *333:16 *365:128 2.25909e-05
8 *333:16 *677:53 0
9 *1540:A *333:16 0.000128358
10 *82:21 *333:16 8.02379e-05
11 *93:8 *333:16 8.02379e-05
12 *332:35 *333:16 4.81157e-05
*RES
1 *1530:X *333:16 43.8213 
2 *333:16 *1542:B1 40.3193 
*END

*D_NET *334 0.00427432
*CONN
*I *1629:A1 I *D sg13cmos5l_a21oi_1
*I *1630:B I *D sg13cmos5l_nand3_1
*I *1531:Y O *D sg13cmos5l_nand2_1
*CAP
1 *1629:A1 3.02081e-05
2 *1630:B 0
3 *1531:Y 0.000891973
4 *334:26 0.000380221
5 *334:16 0.0013024
6 *334:16 *1526:A 8.00842e-05
7 *334:16 *1658:A2 0
8 *334:16 *1658:B1 0.000240328
9 *334:16 *1672:A2 4.77425e-05
10 *334:16 *346:14 8.00842e-05
11 *334:16 *394:14 0
12 *334:16 *428:36 0
13 *334:16 *428:51 0.000144015
14 *334:16 *450:14 0
15 *334:16 *455:14 0
16 *334:16 *649:79 0
17 *334:16 *653:10 0.000110829
18 *334:26 *1629:A2 1.54008e-05
19 *334:26 *1631:B_N 0
20 *334:26 *340:26 0
21 *334:26 *378:28 0.000398979
22 *334:26 *428:10 0
23 *334:26 *429:8 0
24 *334:26 *585:31 7.92547e-05
25 *334:26 *610:35 7.65602e-05
26 *1629:B1 *334:16 6.48152e-05
27 *1629:B1 *334:26 1.54008e-05
28 *1630:A *334:26 0.000112558
29 *82:8 *334:26 7.65602e-05
30 *82:21 *334:26 4.72443e-05
31 *93:8 *334:26 7.96627e-05
*RES
1 *1531:Y *334:16 28.6479 
2 *334:16 *334:26 44.2024 
3 *334:26 *1630:B 20 
4 *334:16 *1629:A1 20.3502 
*END

*D_NET *335 0.00567809
*CONN
*I *1587:B I *D sg13cmos5l_xnor2_1
*I *1538:A1 I *D sg13cmos5l_a21o_1
*I *1532:Y O *D sg13cmos5l_o21ai_1
*CAP
1 *1587:B 0
2 *1538:A1 0.000137926
3 *1532:Y 0.000156674
4 *335:10 0.000531536
5 *335:8 0.000550284
6 *1538:A1 *573:48 0
7 *1538:A1 *612:45 0.000395125
8 *1538:A1 *677:53 0
9 *335:8 *1564:A2 0
10 *335:10 *337:28 0.000290481
11 *335:10 *612:45 0.000396781
12 *335:10 *637:25 0.000238031
13 *335:10 *637:151 0.00131091
14 *335:10 *660:83 0.00125827
15 *1264:A_N *335:10 0.000159643
16 *1502:B1 *335:8 0.000175617
17 *80:18 *1538:A1 0
18 *92:8 *335:10 7.68089e-05
*RES
1 *1532:Y *335:8 41.4008 
2 *335:8 *335:10 9.0022 
3 *335:10 *1538:A1 41.8334 
4 *335:10 *1587:B 40 
*END

*D_NET *336 0.00656771
*CONN
*I *1613:B I *D sg13cmos5l_xnor2_1
*I *1602:A I *D sg13cmos5l_nor2_1
*I *1533:Y O *D sg13cmos5l_nor3_1
*CAP
1 *1613:B 0.00013103
2 *1602:A 0
3 *1533:Y 0.000416553
4 *336:20 0.00115075
5 *336:10 0.00169833
6 *336:10 *1619:B2 0
7 *336:10 *572:12 0
8 *336:10 *586:36 0
9 *336:10 *611:10 0
10 *336:10 *635:88 4.77425e-05
11 *336:10 *689:14 0.000394151
12 *336:20 *1588:S 0.000145042
13 *336:20 *1602:B 0.000177335
14 *336:20 *1942:A 0.000176405
15 *336:20 *338:22 0
16 *336:20 *340:8 0.000209125
17 *336:20 *340:18 7.52158e-05
18 *336:20 *390:8 0
19 *1262:A2 *1613:B 4.70638e-05
20 *1262:A2 *336:10 0.000500215
21 *1262:A2 *336:20 7.51285e-05
22 *1265:A1 *336:20 0.000235656
23 *1813:D *1613:B 0
24 *1989:A *336:10 0.000110983
25 *81:24 *1613:B 8.00842e-05
26 *93:24 *336:20 0
27 *94:16 *336:20 0
28 *96:10 *336:20 0.000398063
29 *98:20 *336:20 0.000451095
30 *163:97 *336:10 4.77425e-05
*RES
1 *1533:Y *336:10 45.2427 
2 *336:10 *336:20 32.2467 
3 *336:20 *1602:A 20 
4 *336:10 *1613:B 41.1845 
*END

*D_NET *337 0.00594763
*CONN
*I *1564:B1 I *D sg13cmos5l_a21oi_1
*I *1535:D I *D sg13cmos5l_or4_1
*I *1534:Y O *D sg13cmos5l_nand2_1
*CAP
1 *1564:B1 0
2 *1535:D 0
3 *1534:Y 0.000442994
4 *337:28 0.000341032
5 *337:18 0.000516305
6 *337:10 0.000618266
7 *337:10 *1238:A 0
8 *337:10 *1617:A2 5.74294e-05
9 *337:10 *372:132 0.000116329
10 *337:10 *409:12 0.000931041
11 *337:18 *1564:A2 0
12 *337:18 *413:10 0.000175699
13 *337:28 *660:83 0
14 *337:28 *677:14 4.78524e-05
15 *1497:B1 *337:18 0.000254439
16 *1497:B1 *337:28 1.54008e-05
17 *85:8 *337:10 0.00109014
18 *86:8 *337:28 0.000181854
19 *86:14 *337:28 0.00023614
20 *202:33 *337:28 0.00034339
21 *204:8 *337:28 0.000288838
22 *335:10 *337:28 0.000290481
*RES
1 *1534:Y *337:10 46.8804 
2 *337:10 *337:18 22.0703 
3 *337:18 *337:28 44.6968 
4 *337:28 *1535:D 20 
5 *337:18 *1564:B1 20 
*END

*D_NET *338 0.0204656
*CONN
*I *1536:B I *D sg13cmos5l_nor2_1
*I *1538:A2 I *D sg13cmos5l_a21o_1
*I *1625:S I *D sg13cmos5l_mux2_1
*I *1621:A1 I *D sg13cmos5l_a21oi_1
*I *1537:B I *D sg13cmos5l_or2_1
*I *1535:X O *D sg13cmos5l_or4_1
*CAP
1 *1536:B 5.16829e-05
2 *1538:A2 0
3 *1625:S 0.000348154
4 *1621:A1 0.000136592
5 *1537:B 2.81274e-05
6 *1535:X 0.000253636
7 *338:90 0.000861651
8 *338:82 0.00252256
9 *338:71 4.59976e-05
10 *338:65 0.00201759
11 *338:39 0.000688731
12 *338:35 0.000795097
13 *338:22 0.000441106
14 *338:18 0.00043357
15 *338:10 0.000606344
16 *1537:B *1258:B 4.78192e-05
17 *1621:A1 *1234:A 0.000500948
18 *1621:A1 *1621:A2 0.000234727
19 *1621:A1 *377:14 0.00023547
20 *1621:A1 *378:16 0
21 *1621:A1 *711:10 4.77425e-05
22 *1625:S *1234:A 0.00039508
23 *1625:S *1588:S 0
24 *1625:S *1625:A1 0.000167038
25 *1625:S *377:14 0.00026599
26 *338:10 *364:53 7.51653e-05
27 *338:10 *413:10 0.000452246
28 *338:10 *660:77 0
29 *338:10 *675:14 0.000829184
30 *338:18 *364:45 4.82481e-05
31 *338:18 *403:10 0.000990464
32 *338:18 *612:35 0.000987469
33 *338:22 *1258:B 0.000110829
34 *338:22 *404:10 0
35 *338:35 *403:10 0
36 *338:35 *404:10 0.000130095
37 *338:35 *637:25 0
38 *338:39 *544:88 0
39 *338:65 *544:88 0
40 *338:65 *672:16 0
41 *338:71 *677:53 5.69428e-05
42 *338:82 *372:10 0.0020455
43 *338:82 *453:8 0
44 *338:82 *460:8 0
45 *338:82 *544:88 0
46 *338:82 *630:40 0.000862244
47 *338:82 *630:50 0.000290851
48 *338:82 *635:14 0
49 *338:82 *649:62 0
50 *338:82 *652:20 0
51 *338:82 *654:134 0.000286974
52 *338:82 *672:16 0
53 *338:82 *673:88 0
54 *338:82 *677:30 0
55 *338:82 *706:136 0.0001292
56 *338:90 *544:31 0
57 *338:90 *608:16 0
58 *338:90 *608:28 0
59 *338:90 *654:115 0
60 *338:90 *695:66 0.000606326
61 *338:90 *695:87 0.000605244
62 *1537:A *1537:B 1.54008e-05
63 *1537:A *338:35 0.000344756
64 *80:8 *338:71 0
65 *80:18 *338:35 0
66 *80:18 *338:39 0
67 *80:18 *338:65 0
68 *80:24 *338:39 0
69 *81:8 *1625:S 0
70 *103:10 *338:90 0.000392705
71 *110:14 *1536:B 8.00842e-05
72 *202:44 *338:10 0
73 *312:64 *338:18 0
74 *329:8 *338:82 0
75 *331:8 *338:82 0
76 *336:20 *338:22 0
*RES
1 *1535:X *338:10 44.1303 
2 *338:10 *338:18 46.1697 
3 *338:18 *338:22 20.7519 
4 *338:22 *1537:B 20.3193 
5 *338:22 *338:35 43.5638 
6 *338:35 *338:39 22.266 
7 *338:39 *1621:A1 42.6471 
8 *338:39 *1625:S 44.4187 
9 *338:35 *338:65 2.4823 
10 *338:65 *338:71 40.3862 
11 *338:71 *1538:A2 20 
12 *338:65 *338:82 39.982 
13 *338:82 *338:90 49.7232 
14 *338:90 *1536:B 40.5356 
*END

*D_NET *339 0.00962511
*CONN
*I *1621:B1 I *D sg13cmos5l_a21oi_1
*I *1536:Y O *D sg13cmos5l_nor2_1
*CAP
1 *1621:B1 0
2 *1536:Y 0.000111369
3 *339:30 0.000968504
4 *339:20 0.00168542
5 *339:14 0.0011893
6 *339:8 0.000583757
7 *339:8 *443:8 0
8 *339:8 *653:60 0.000288173
9 *339:14 *433:18 0
10 *339:14 *585:16 0.00014474
11 *339:20 *672:45 0
12 *339:20 *672:62 0.00130639
13 *339:20 *714:18 0
14 *339:30 *340:18 0.000873108
15 *339:30 *421:10 0.000306438
16 *339:30 *711:10 0
17 *1279:B1 *339:14 0
18 *80:36 *339:20 1.54008e-05
19 *80:42 *339:20 0.00215251
20 *93:24 *339:30 0
*RES
1 *1536:Y *339:8 41.339 
2 *339:8 *339:14 43.9964 
3 *339:14 *339:20 31.3918 
4 *339:20 *339:30 47.7559 
5 *339:30 *1621:B1 20 
*END

*D_NET *340 0.0107397
*CONN
*I *1630:C I *D sg13cmos5l_nand3_1
*I *1629:A2 I *D sg13cmos5l_a21oi_1
*I *1537:X O *D sg13cmos5l_or2_1
*CAP
1 *1630:C 0
2 *1629:A2 0.000526225
3 *1537:X 0.000517103
4 *340:26 0.000718976
5 *340:18 0.00170883
6 *340:8 0.00203318
7 *1629:A2 *1640:B1 0
8 *1629:A2 *1658:A2 1.54008e-05
9 *1629:A2 *585:31 0
10 *1629:A2 *610:35 0.000177109
11 *340:8 *1258:B 0
12 *340:18 *365:128 0.000157904
13 *340:18 *372:78 0
14 *340:18 *421:10 0.000182579
15 *340:18 *424:8 0.000287402
16 *340:18 *425:10 0.00141253
17 *340:18 *426:10 0.000769476
18 *340:18 *699:12 0
19 *340:18 *746:8 0
20 *340:26 *1259:A 0
21 *1265:A1 *340:8 0
22 *1630:A *1629:A2 0
23 *82:21 *1629:A2 0
24 *93:8 *340:26 0.00014413
25 *93:14 *340:18 0.000768424
26 *93:24 *340:18 0
27 *97:35 *340:8 0
28 *99:12 *340:8 0
29 *332:24 *340:18 0.000147605
30 *334:26 *1629:A2 1.54008e-05
31 *334:26 *340:26 0
32 *336:20 *340:8 0.000209125
33 *336:20 *340:18 7.52158e-05
34 *339:30 *340:18 0.000873108
*RES
1 *1537:X *340:8 44.429 
2 *340:8 *340:18 40.0644 
3 *340:18 *340:26 41.751 
4 *340:26 *1629:A2 24.8204 
5 *340:26 *1630:C 20 
*END

*D_NET *341 0.00600977
*CONN
*I *1542:A1 I *D sg13cmos5l_o21ai_1
*I *1639:A I *D sg13cmos5l_xnor2_1
*I *1538:X O *D sg13cmos5l_a21o_1
*CAP
1 *1542:A1 0
2 *1639:A 0.000452576
3 *1538:X 0.000319957
4 *341:30 0.000476905
5 *341:26 0.000327424
6 *341:18 0.000601444
7 *341:10 0.000618306
8 *1639:A *1235:A 8.00842e-05
9 *1639:A *1259:A 0
10 *1639:A *1541:A 0.000213771
11 *1639:A *1542:A2 8.00842e-05
12 *1639:A *1626:C1 0
13 *1639:A *1639:B 1.54008e-05
14 *1639:A *437:14 0
15 *1639:A *573:37 0.000144632
16 *1639:A *575:25 4.77425e-05
17 *341:10 *1590:A2 0
18 *341:10 *1590:B1 0.000159096
19 *341:10 *1649:B_N 0
20 *341:10 *347:51 0.000450991
21 *341:10 *417:14 0.000664095
22 *341:18 *347:26 2.25909e-05
23 *341:18 *347:51 0.000499851
24 *341:18 *544:21 0
25 *341:26 *365:96 0.000392619
26 *341:26 *585:39 0
27 *341:26 *612:53 0
28 *341:26 *672:16 0.000394366
29 *341:26 *677:53 0
30 *341:30 *1542:A2 1.54008e-05
31 *341:30 *573:37 3.24351e-05
*RES
1 *1538:X *341:10 44.4702 
2 *341:10 *341:18 43.1106 
3 *341:18 *341:26 44.0067 
4 *341:26 *341:30 20.3193 
5 *341:30 *1639:A 24.4496 
6 *341:30 *1542:A1 20 
*END

*D_NET *342 0.014016
*CONN
*I *1590:A1 I *D sg13cmos5l_a21oi_1
*I *1648:A I *D sg13cmos5l_nand3_1
*I *1539:Y O *D sg13cmos5l_nand2_1
*CAP
1 *1590:A1 0
2 *1648:A 0.000364174
3 *1539:Y 0.000950064
4 *342:33 0.000120043
5 *342:18 0.00278478
6 *342:12 0.00325063
7 *1648:A *1648:B 0
8 *1648:A *1649:A 1.54008e-05
9 *342:12 *1674:A1 0
10 *342:12 *1676:A2 0
11 *342:12 *1956:A 0
12 *342:12 *411:43 0
13 *342:12 *465:14 0
14 *342:12 *577:10 4.79124e-05
15 *342:12 *633:8 0
16 *342:12 *653:14 0
17 *342:18 *1579:C 0.000181942
18 *342:18 *1592:A2 6.43657e-05
19 *342:18 *1649:A 8.00842e-05
20 *342:18 *1685:A2 0.000425859
21 *342:18 *1866:A 0.00103987
22 *342:18 *346:29 0.000370587
23 *342:18 *351:8 0
24 *342:18 *395:8 0
25 *342:18 *477:10 0.000450725
26 *342:18 *479:8 0
27 *342:18 *480:8 0.000661577
28 *342:18 *576:48 0.00172857
29 *342:18 *619:29 0.000342905
30 *342:18 *630:12 4.74263e-05
31 *342:18 *630:30 0.000110935
32 *342:18 *648:61 0
33 *342:18 *649:87 0
34 *342:18 *706:77 0
35 *342:18 *717:76 0
36 *342:33 *416:34 0.000448723
37 *342:33 *447:8 0
38 *342:33 *573:65 0.000287501
39 *1280:C *342:12 0
40 *106:33 *342:12 0.000241924
*RES
1 *1539:Y *342:12 48.5028 
2 *342:12 *342:18 43.4737 
3 *342:18 *1648:A 22.1836 
4 *342:18 *342:33 42.0806 
5 *342:33 *1590:A1 20 
*END

*D_NET *343 0.000572781
*CONN
*I *1542:A2 I *D sg13cmos5l_o21ai_1
*I *1540:X O *D sg13cmos5l_and2_1
*CAP
1 *1542:A2 5.08045e-05
2 *1540:X 7.26604e-05
3 *343:8 0.000123465
4 *343:8 *573:37 0
5 *1542:B1 *1542:A2 4.77425e-05
6 *1639:A *1542:A2 8.00842e-05
7 *333:16 *343:8 0.000182624
8 *341:30 *1542:A2 1.54008e-05
*RES
1 *1540:X *343:8 40.8446 
2 *343:8 *1542:A2 40.5356 
*END

*D_NET *344 0.00630393
*CONN
*I *1637:B I *D sg13cmos5l_nand3_1
*I *1589:B1 I *D sg13cmos5l_a21o_1
*I *1639:B I *D sg13cmos5l_xnor2_1
*I *1541:Y O *D sg13cmos5l_xnor2_1
*CAP
1 *1637:B 0.000341403
2 *1589:B1 0.000125519
3 *1639:B 0.000600667
4 *1541:Y 0.000495189
5 *344:22 0.00106534
6 *344:16 0.000680559
7 *344:14 0.000495189
8 *1589:B1 *1626:B1 0.000176521
9 *1637:B *1637:C 0.000208615
10 *1637:B *673:43 0
11 *1637:B *673:49 8.0194e-05
12 *1639:B *1259:A 0.000144877
13 *1639:B *372:78 0.000130522
14 *1639:B *372:86 7.65627e-05
15 *1639:B *608:34 0.000396106
16 *1639:B *608:51 0
17 *344:14 *1235:A 0.000143932
18 *344:14 *1623:A2 0
19 *344:14 *1626:C1 0
20 *344:14 *378:16 0.000521038
21 *344:14 *437:22 2.21849e-05
22 *344:14 *650:46 0
23 *344:14 *653:68 0
24 *344:14 *673:61 0
25 *344:22 *1589:A2 0.000111839
26 *344:22 *1637:C 0.000144899
27 *1589:A1 *1589:B1 1.54008e-05
28 *1639:A *1639:B 1.54008e-05
29 *80:32 *1639:B 0.000128408
30 *80:32 *344:22 0.000183564
*RES
1 *1541:Y *344:14 45.1706 
2 *344:14 *344:16 20 
3 *344:16 *344:22 22.4617 
4 *344:22 *1639:B 45.2015 
5 *344:22 *1589:B1 41.1845 
6 *344:16 *1637:B 22.9664 
*END

*D_NET *345 0.00217765
*CONN
*I *1545:A1 I *D sg13cmos5l_a21oi_1
*I *1650:A I *D sg13cmos5l_xor2_1
*I *1542:Y O *D sg13cmos5l_o21ai_1
*CAP
1 *1545:A1 0.000265546
2 *1650:A 0
3 *1542:Y 0.000141572
4 *345:16 0.000221639
5 *345:8 0.000628757
6 *1545:A1 *1545:A2 1.54556e-05
7 *1545:A1 *1616:A 0
8 *1545:A1 *348:14 0.000110829
9 *1545:A1 *365:88 0
10 *1545:A1 *585:39 9.72391e-05
11 *1545:A1 *585:50 0.000112333
12 *345:8 *573:37 0
13 *345:8 *585:39 0.000110948
14 *345:8 *672:10 0
15 *345:16 *347:26 0.000155213
16 *345:16 *544:21 0
17 *345:16 *612:53 0
18 *345:16 *654:134 0.000238031
19 *345:16 *674:14 8.00842e-05
20 *1545:B1 *1545:A1 0
21 *329:12 *1545:A1 0
*RES
1 *1542:Y *345:8 21.3184 
2 *345:8 *345:16 42.369 
3 *345:16 *1650:A 20 
4 *345:8 *1545:A1 22.6986 
*END

*D_NET *346 0.0066105
*CONN
*I *1592:A1 I *D sg13cmos5l_o21ai_1
*I *1591:A I *D sg13cmos5l_nor2_1
*I *1543:X O *D sg13cmos5l_and2_1
*CAP
1 *1592:A1 0
2 *1591:A 0
3 *1543:X 0
4 *346:29 0.000441626
5 *346:14 0.000499446
6 *346:4 0.000941072
7 *346:14 *1567:C 0
8 *346:14 *1682:A 0.000346555
9 *346:14 *370:19 0.000643363
10 *346:14 *428:51 4.68099e-05
11 *346:14 *630:36 0.000450009
12 *346:14 *630:40 0
13 *346:14 *652:60 0.000183956
14 *346:29 *1543:A 0
15 *346:29 *1592:A2 0.000370587
16 *346:29 *1654:B 0.000980069
17 *346:29 *370:19 0.00108613
18 *329:25 *346:14 4.73361e-05
19 *329:25 *346:29 0.000122871
20 *334:16 *346:14 8.00842e-05
21 *342:18 *346:29 0.000370587
*RES
1 *1543:X *346:4 20 
2 *346:4 *346:14 46.5508 
3 *346:14 *1591:A 20 
4 *346:4 *346:29 47.8486 
5 *346:29 *1592:A1 20 
*END

*D_NET *347 0.00499136
*CONN
*I *1590:B1 I *D sg13cmos5l_a21oi_1
*I *1648:B I *D sg13cmos5l_nand3_1
*I *1650:B I *D sg13cmos5l_xor2_1
*I *1545:A2 I *D sg13cmos5l_a21oi_1
*I *1544:Y O *D sg13cmos5l_xnor2_1
*CAP
1 *1590:B1 0.000141351
2 *1648:B 0.000153174
3 *1650:B 9.71998e-05
4 *1545:A2 0.000173408
5 *1544:Y 0.000510202
6 *347:51 0.000594906
7 *347:26 0.000734375
8 *1545:A2 *1527:A 0
9 *1545:A2 *1616:A 0
10 *1545:A2 *1656:B 8.01938e-05
11 *1590:B1 *1649:B_N 0.0001122
12 *1590:B1 *393:10 4.77425e-05
13 *1590:B1 *573:65 0
14 *1648:B *1648:C 1.54556e-05
15 *1648:B *1649:B_N 0
16 *1650:B *1651:B1 4.75166e-05
17 *1650:B *674:14 0.000112332
18 *347:26 *1544:A 4.74263e-05
19 *347:26 *1616:A 0
20 *347:26 *416:34 8.0216e-05
21 *347:26 *544:21 0
22 *347:26 *612:53 0.000183747
23 *347:26 *674:14 0
24 *347:51 *416:34 0
25 *347:51 *417:14 0
26 *347:51 *447:8 0.000235913
27 *347:51 *544:21 0
28 *347:51 *573:65 0
29 *347:51 *612:53 0.000320805
30 *1545:A1 *1545:A2 1.54556e-05
31 *1545:B1 *1545:A2 0
32 *1648:A *1648:B 0
33 *329:25 *1545:A2 0
34 *341:10 *1590:B1 0.000159096
35 *341:10 *347:51 0.000450991
36 *341:18 *347:26 2.25909e-05
37 *341:18 *347:51 0.000499851
38 *345:16 *347:26 0.000155213
*RES
1 *1544:Y *1545:A2 41.8746 
2 *1544:Y *347:26 43.4608 
3 *347:26 *1650:B 41.1021 
4 *347:26 *347:51 45.1294 
5 *347:51 *1648:B 41.1845 
6 *347:51 *1590:B1 41.5965 
*END

*D_NET *348 0.0064756
*CONN
*I *1548:A1 I *D sg13cmos5l_o21ai_1
*I *1655:A I *D sg13cmos5l_xnor2_1
*I *1545:Y O *D sg13cmos5l_a21oi_1
*CAP
1 *1548:A1 0.000255605
2 *1655:A 0
3 *1545:Y 0.000176359
4 *348:22 0.00117734
5 *348:14 0.00109809
6 *1548:A1 *1655:B 8.00842e-05
7 *1548:A1 *350:22 0.000278291
8 *1548:A1 *369:10 0
9 *1548:A1 *630:87 0
10 *1548:A1 *630:102 1.54008e-05
11 *348:14 *1544:A 9.2233e-05
12 *348:14 *393:40 0.00012925
13 *348:14 *672:10 0
14 *348:22 *1544:A 0.000234491
15 *348:22 *1570:C 0
16 *348:22 *1616:A 0.000393885
17 *348:22 *459:8 0
18 *348:22 *630:12 0.000721557
19 *348:22 *630:87 0
20 *348:22 *654:146 0.00014404
21 *348:22 *654:156 0.000176293
22 *348:22 *673:35 0.000182033
23 *348:22 *673:82 0.00103352
24 *1496:B *348:22 0.000176293
25 *1545:A1 *348:14 0.000110829
26 *1545:B1 *348:14 0
27 *180:30 *348:22 0
*RES
1 *1545:Y *348:14 42.0188 
2 *348:14 *348:22 32.0201 
3 *348:22 *1655:A 20 
4 *348:22 *1548:A1 22.7192 
*END

*D_NET *349 0.00153931
*CONN
*I *1593:A1 I *D sg13cmos5l_a21o_1
*I *1666:A I *D sg13cmos5l_nand3_1
*I *1546:Y O *D sg13cmos5l_nand2_1
*CAP
1 *1593:A1 0
2 *1666:A 2.59583e-05
3 *1546:Y 0.000115943
4 *349:21 0.000114987
5 *349:6 0.000256888
6 *1666:A *1546:A 4.77534e-05
7 *1666:A *630:102 4.77534e-05
8 *349:6 *1524:B 0
9 *349:6 *1546:A 0.000193653
10 *349:6 *630:102 0.000144388
11 *349:21 *1666:B 0.000235055
12 *349:21 *1666:C 1.54008e-05
13 *325:14 *349:21 0.000341534
*RES
1 *1546:Y *349:6 21.4008 
2 *349:6 *1666:A 20.3193 
3 *349:6 *349:21 41.9055 
4 *349:21 *1593:A1 20 
*END

*D_NET *350 0.00332328
*CONN
*I *1548:A2 I *D sg13cmos5l_o21ai_1
*I *1655:B I *D sg13cmos5l_xnor2_1
*I *1592:B1 I *D sg13cmos5l_o21ai_1
*I *1654:A I *D sg13cmos5l_xnor2_1
*I *1547:X O *D sg13cmos5l_xor2_1
*CAP
1 *1548:A2 0
2 *1655:B 5.61002e-05
3 *1592:B1 0.000249625
4 *1654:A 2.91504e-05
5 *1547:X 4.19095e-05
6 *350:28 0.000499525
7 *350:22 0.000557389
8 *350:12 0.000432411
9 *350:8 0.000193781
10 *1592:B1 *1566:A 0.000208615
11 *1592:B1 *1592:A2 0.000112558
12 *1592:B1 *395:8 0
13 *1654:A *1566:A 4.78521e-05
14 *1654:A *1592:A2 0
15 *350:8 *649:87 0.000130725
16 *350:8 *677:30 0
17 *350:12 *1524:B 0.000143171
18 *350:12 *630:102 1.54556e-05
19 *350:22 *369:10 0
20 *350:22 *371:16 0
21 *350:22 *674:20 0
22 *350:28 *369:10 0.000129592
23 *350:28 *370:19 0
24 *350:28 *452:8 0
25 *1548:B1 *350:12 1.54008e-05
26 *1548:B1 *350:22 0.000101641
27 *1548:A1 *1655:B 8.00842e-05
28 *1548:A1 *350:22 0.000278291
29 *325:14 *350:8 0
*RES
1 *1547:X *350:8 40.5974 
2 *350:8 *350:12 21.4008 
3 *350:12 *350:22 22.2328 
4 *350:22 *350:28 22.1527 
5 *350:28 *1654:A 20.3193 
6 *350:28 *1592:B1 22.7501 
7 *350:22 *1655:B 40.5356 
8 *350:12 *1548:A2 20 
*END

*D_NET *351 0.00430735
*CONN
*I *1668:A I *D sg13cmos5l_xor2_1
*I *1551:A1 I *D sg13cmos5l_a21oi_1
*I *1548:Y O *D sg13cmos5l_o21ai_1
*CAP
1 *1668:A 0.000385075
2 *1551:A1 0.000266339
3 *1548:Y 0.000505457
4 *351:8 0.00115687
5 *1551:A1 *1866:A 0
6 *1551:A1 *619:29 0
7 *1668:A *1669:A2 0
8 *1668:A *673:20 0
9 *351:8 *1525:C 0
10 *351:8 *576:48 0
11 *351:8 *635:22 0
12 *332:14 *1551:A1 0.000660599
13 *332:14 *351:8 0.00133301
14 *342:18 *351:8 0
*RES
1 *1548:Y *351:8 46.283 
2 *351:8 *1551:A1 43.0694 
3 *351:8 *1668:A 42.6162 
*END

*D_NET *352 0.00254975
*CONN
*I *1594:A1 I *D sg13cmos5l_a21oi_1
*I *1678:A I *D sg13cmos5l_nand3_1
*I *1549:Y O *D sg13cmos5l_nand2_1
*CAP
1 *1594:A1 0.000410076
2 *1678:A 0
3 *1549:Y 0.000375633
4 *352:8 0.000785709
5 *1594:A1 *1594:A2 0.000338075
6 *1594:A1 *1678:C 0.000290458
7 *1594:A1 *353:8 0
8 *1594:A1 *408:22 0.000273392
9 *352:8 *353:8 0
10 *352:8 *649:87 0
11 *352:8 *699:20 7.6403e-05
12 *1549:B *352:8 0
13 *325:18 *1594:A1 0
14 *325:18 *352:8 0
*RES
1 *1549:Y *352:8 43.0694 
2 *352:8 *1678:A 40 
3 *352:8 *1594:A1 44.3466 
*END

*D_NET *353 0.00573121
*CONN
*I *1666:B I *D sg13cmos5l_nand3_1
*I *1593:B1 I *D sg13cmos5l_a21o_1
*I *1668:B I *D sg13cmos5l_xor2_1
*I *1551:A2 I *D sg13cmos5l_a21oi_1
*I *1550:Y O *D sg13cmos5l_xnor2_1
*CAP
1 *1666:B 9.93565e-05
2 *1593:B1 0
3 *1668:B 0.000394842
4 *1551:A2 0.000167596
5 *1550:Y 0.000117756
6 *353:38 0.000387321
7 *353:19 0.000755006
8 *353:8 0.000357551
9 *1666:B *649:87 0
10 *1668:B *1667:A 1.54008e-05
11 *1668:B *1669:B2 8.00842e-05
12 *1668:B *1669:B1 0.000338113
13 *1668:B *650:12 0
14 *353:8 *649:87 0.000289571
15 *353:19 *1678:C 0.000290458
16 *353:19 *649:87 0.000322419
17 *353:38 *1678:C 7.51285e-05
18 *353:38 *396:12 0.000780379
19 *353:38 *574:43 0.000766241
20 *353:38 *649:87 0.000107239
21 *1594:A1 *353:8 0
22 *325:14 *1666:B 2.20966e-05
23 *325:14 *353:38 0.000129592
24 *349:21 *1666:B 0.000235055
25 *352:8 *353:8 0
*RES
1 *1550:Y *353:8 41.339 
2 *353:8 *1551:A2 41.0312 
3 *353:8 *353:19 1.5862 
4 *353:19 *1668:B 43.5638 
5 *353:19 *353:38 5.6444 
6 *353:38 *1593:B1 40 
7 *353:38 *1666:B 41.339 
*END

*D_NET *354 0.00441987
*CONN
*I *1680:A I *D sg13cmos5l_xnor2_1
*I *1555:A1 I *D sg13cmos5l_o21ai_1
*I *1551:Y O *D sg13cmos5l_a21oi_1
*CAP
1 *1680:A 0.000253753
2 *1555:A1 0
3 *1551:Y 0.000286507
4 *354:16 0.000711635
5 *354:8 0.00125189
6 *1680:A *1678:B 0.000223977
7 *1680:A *1679:B_N 8.0194e-05
8 *354:8 *1678:B 8.00842e-05
9 *354:8 *650:12 1.54008e-05
10 *354:16 *1555:A2 0.000176786
11 *354:16 *356:12 4.77425e-05
12 *354:16 *357:10 0.000287222
13 *354:16 *365:10 0.000266599
14 *354:16 *365:20 0.000395415
15 *354:16 *462:12 0
16 *354:16 *647:74 0
17 *354:16 *673:16 0.000342659
18 *311:53 *1680:A 0
19 *311:53 *354:8 0
20 *325:18 *354:16 0
*RES
1 *1551:Y *354:8 22.6162 
2 *354:8 *354:16 47.6838 
3 *354:16 *1555:A1 20 
4 *354:8 *1680:A 22.9664 
*END

*D_NET *355 0.00373852
*CONN
*I *1691:A1 I *D sg13cmos5l_o21ai_1
*I *1596:C I *D sg13cmos5l_nor4_1
*I *1595:B I *D sg13cmos5l_nor3_1
*I *1552:X O *D sg13cmos5l_and2_1
*CAP
1 *1691:A1 0.000289572
2 *1596:C 2.1512e-05
3 *1595:B 0.000167654
4 *1552:X 0.000427755
5 *355:10 0.000258894
6 *355:8 0.000787054
7 *1595:B *1595:A 0
8 *1595:B *397:51 0
9 *1595:B *398:10 0
10 *1595:B *410:16 0
11 *1595:B *645:87 0
12 *1595:B *646:8 0.000235556
13 *1596:C *397:38 1.54008e-05
14 *1596:C *397:51 3.23417e-05
15 *1691:A1 *1620:B 4.78688e-05
16 *1691:A1 *365:10 0
17 *1691:A1 *397:10 0
18 *1691:A1 *397:38 1.54008e-05
19 *1691:A1 *399:16 1.54008e-05
20 *1691:A1 *717:119 6.99179e-05
21 *355:8 *411:8 0.0012246
22 *355:8 *684:24 0
23 *355:8 *684:30 0
24 *355:10 *411:8 0.000129592
25 *323:23 *355:8 0
*RES
1 *1552:X *355:8 45.7886 
2 *355:8 *355:10 0.8446 
3 *355:10 *1595:B 41.8746 
4 *355:10 *1596:C 40.3193 
5 *355:8 *1691:A1 42.6368 
*END

*D_NET *356 0.00398799
*CONN
*I *1554:A I *D sg13cmos5l_inv_1
*I *1594:B1 I *D sg13cmos5l_a21oi_1
*I *1680:B I *D sg13cmos5l_xnor2_1
*I *1678:B I *D sg13cmos5l_nand3_1
*I *1553:Y O *D sg13cmos5l_xnor2_1
*CAP
1 *1554:A 3.44435e-05
2 *1594:B1 0
3 *1680:B 0
4 *1678:B 0.000306929
5 *1553:Y 0.000417166
6 *356:22 0.000441858
7 *356:18 0.000393646
8 *356:12 0.000710327
9 *356:12 *373:24 0.000288097
10 *356:12 *647:74 0
11 *356:18 *373:24 0.000415382
12 *356:18 *408:22 0.000287501
13 *356:18 *647:74 0
14 *356:22 *373:24 0.000340835
15 *356:22 *673:113 0
16 *1555:B1 *356:12 0
17 *1680:A *1678:B 0.000223977
18 *354:8 *1678:B 8.00842e-05
19 *354:16 *356:12 4.77425e-05
*RES
1 *1553:Y *356:12 43.3063 
2 *356:12 *356:18 3.4917 
3 *356:18 *356:22 21.5862 
4 *356:22 *1678:B 23.0694 
5 *356:22 *1680:B 20 
6 *356:18 *1594:B1 40 
7 *356:12 *1554:A 40.2858 
*END

*D_NET *357 0.00134058
*CONN
*I *1555:A2 I *D sg13cmos5l_o21ai_1
*I *1554:Y O *D sg13cmos5l_inv_1
*CAP
1 *1555:A2 0.000111443
2 *1554:Y 0.000147567
3 *357:10 0.00025901
4 *1555:A2 *574:43 0
5 *357:10 *647:74 0.000343154
6 *1555:B1 *1555:A2 1.54008e-05
7 *354:16 *1555:A2 0.000176786
8 *354:16 *357:10 0.000287222
*RES
1 *1554:Y *357:10 42.1218 
2 *357:10 *1555:A2 41.1845 
*END

*D_NET *358 0.010666
*CONN
*I *1558:C I *D sg13cmos5l_nand3_1
*I *1557:B I *D sg13cmos5l_nand2_1
*I *1556:B I *D sg13cmos5l_nand2_1
*I *1693:B I *D sg13cmos5l_xor2_1
*I *1555:Y O *D sg13cmos5l_o21ai_1
*CAP
1 *1558:C 0.000178276
2 *1557:B 0.000162138
3 *1556:B 0.000171289
4 *1693:B 0.000741455
5 *1555:Y 2.44723e-05
6 *358:38 0.0010877
7 *358:30 0.000765791
8 *358:20 0.000708538
9 *358:16 0.000686212
10 *358:8 0.000609115
11 *1556:B *509:18 0
12 *1556:B *645:66 0
13 *1557:B *1702:B 0
14 *1557:B *516:18 8.00842e-05
15 *1558:C *361:14 4.77425e-05
16 *1693:B *1717:A 0.000148784
17 *1693:B *365:37 0.000112426
18 *1693:B *365:56 0.000402793
19 *1693:B *365:64 8.00842e-05
20 *1693:B *487:12 0.000112426
21 *1693:B *509:18 0
22 *1693:B *544:43 0
23 *1693:B *597:78 0
24 *358:8 *373:24 7.65627e-05
25 *358:8 *647:74 0
26 *358:16 *544:68 0
27 *358:16 *647:74 0
28 *358:16 *711:14 0
29 *358:20 *1568:C 0
30 *358:20 *361:14 0
31 *358:20 *563:83 0
32 *358:30 *1708:A 7.53965e-05
33 *358:30 *1721:A2 0
34 *358:30 *1865:A 0.000553798
35 *358:30 *385:29 0.00156786
36 *358:30 *619:10 0.0009585
37 *358:30 *642:54 0
38 *358:30 *644:87 0.000183128
39 *358:38 *1708:A 0
40 *358:38 *359:8 0
41 *358:38 *516:18 0
42 *358:38 *520:14 0
43 *358:38 *644:87 0.000555005
44 *358:38 *645:66 0.000448611
45 *1558:B *1558:C 0.000127827
46 *311:18 *358:16 0
*RES
1 *1555:Y *358:8 40.3502 
2 *358:8 *358:16 46.3551 
3 *358:16 *358:20 20.9682 
4 *358:20 *358:30 49.1773 
5 *358:30 *358:38 43.1724 
6 *358:38 *1693:B 27.5602 
7 *358:38 *1556:B 21.4008 
8 *358:30 *1557:B 21.4008 
9 *358:20 *1558:C 21.6171 
*END

*D_NET *359 0.000601524
*CONN
*I *1709:B I *D sg13cmos5l_xnor2_1
*I *1556:Y O *D sg13cmos5l_nand2_1
*CAP
1 *1709:B 4.25262e-05
2 *1556:Y 0.000140455
3 *359:8 0.000182982
4 *1709:B *1708:A 8.0216e-05
5 *1709:B *642:54 8.0216e-05
6 *359:8 *645:58 7.51285e-05
7 *358:38 *359:8 0
*RES
1 *1556:Y *359:8 41.339 
2 *359:8 *1709:B 40.5356 
*END

*D_NET *360 0.000752217
*CONN
*I *1721:A2 I *D sg13cmos5l_a22oi_1
*I *1557:Y O *D sg13cmos5l_nand2_1
*CAP
1 *1721:A2 0.000353068
2 *1557:Y 0.000353068
3 *1721:A2 *1519:A 1.54008e-05
4 *1721:A2 *516:18 3.06804e-05
5 *1721:A2 *570:39 0
6 *1721:A2 *570:55 0
7 *358:30 *1721:A2 0
*RES
1 *1557:Y *1721:A2 43.0179 
*END

*D_NET *361 0.000958446
*CONN
*I *1559:B1 I *D sg13cmos5l_a21oi_1
*I *1558:Y O *D sg13cmos5l_nand3_1
*CAP
1 *1559:B1 0
2 *1558:Y 0.000431638
3 *361:14 0.000431638
4 *361:14 *1558:A 4.74263e-05
5 *361:14 *563:22 0
6 *361:14 *619:10 0
7 *361:14 *619:53 0
8 *1558:B *361:14 0
9 *1558:C *361:14 4.77425e-05
10 *311:12 *361:14 0
11 *311:18 *361:14 0
12 *314:10 *361:14 0
13 *358:20 *361:14 0
*RES
1 *1558:Y *361:14 43.8728 
2 *361:14 *1559:B1 40 
*END

*D_NET *362 0.00867087
*CONN
*I *1727:A1 I *D sg13cmos5l_mux2_1
*I *1560:B I *D sg13cmos5l_nand2_1
*I *1721:B1 I *D sg13cmos5l_a22oi_1
*I *1561:B1 I *D sg13cmos5l_a221oi_1
*I *1559:Y O *D sg13cmos5l_a21oi_1
*CAP
1 *1727:A1 9.53659e-05
2 *1560:B 0.00020302
3 *1721:B1 0.000112508
4 *1561:B1 0
5 *1559:Y 4.86608e-05
6 *362:39 0.00101378
7 *362:29 0.00163303
8 *362:16 0.000636919
9 *362:6 0.001525
10 *1560:B *570:55 0
11 *1721:B1 *570:39 0
12 *1721:B1 *570:55 4.78192e-05
13 *1727:A1 *1727:A0 0.000144745
14 *362:6 *386:19 0
15 *362:6 *563:22 0
16 *362:6 *563:83 0
17 *362:16 *364:12 0
18 *362:16 *619:63 0
19 *362:16 *642:26 0
20 *362:16 *758:16 0.000393568
21 *362:29 *1586:A2 0
22 *362:29 *1586:A1 0
23 *362:29 *1598:C 0.000605863
24 *362:29 *563:22 0
25 *362:29 *684:12 0
26 *362:39 *1728:A0 4.77425e-05
27 *1559:A1 *362:6 4.78192e-05
28 *1559:A1 *362:16 0
29 *1559:A1 *362:29 0.000112449
30 *1561:C1 *362:16 0
31 *1561:A1 *362:16 4.78359e-05
32 *1583:A *1727:A1 0.000176742
33 *1583:A *362:39 0.000208682
34 *1597:A *1560:B 3.1668e-05
35 *1597:A *1721:B1 0
36 *1721:A1 *1560:B 0
37 *1725:B1 *362:39 0.00130057
38 *310:43 *362:16 0.00023709
39 *311:12 *362:16 0
40 *314:14 *362:29 0
*RES
1 *1559:Y *362:6 20.5356 
2 *362:6 *362:16 46.4581 
3 *362:16 *1561:B1 20 
4 *362:6 *362:29 47.6838 
5 *362:29 *362:39 47.7559 
6 *362:39 *1721:B1 21.1021 
7 *362:39 *1560:B 21.751 
8 *362:29 *1727:A1 21.1845 
*END

*D_NET *363 0.00132131
*CONN
*I *1562:B I *D sg13cmos5l_nand2_1
*I *1560:Y O *D sg13cmos5l_nand2_1
*CAP
1 *1562:B 0
2 *1560:Y 0.000126226
3 *363:16 0.000276717
4 *363:10 0.000402942
5 *363:10 *1560:A 0.000122581
6 *363:10 *1865:A 0.000181176
7 *363:16 *399:24 0.000211669
8 *311:18 *363:16 0
*RES
1 *1560:Y *363:10 41.3802 
2 *363:10 *363:16 42.9149 
3 *363:16 *1562:B 40 
*END

*D_NET *364 0.00787039
*CONN
*I *1618:A1 I *D sg13cmos5l_a21o_1
*I *1611:A1 I *D sg13cmos5l_a21o_1
*I *1563:B I *D sg13cmos5l_nand2_1
*I *1561:Y O *D sg13cmos5l_a221oi_1
*CAP
1 *1618:A1 0
2 *1611:A1 2.52189e-05
3 *1563:B 0
4 *1561:Y 0.00189358
5 *364:53 0.000243714
6 *364:45 0.000379584
7 *364:32 0.00178326
8 *364:12 0.00027141
9 *1611:A1 *1611:B1 4.78359e-05
10 *1611:A1 *636:20 4.78359e-05
11 *364:12 *1561:B2 4.77863e-05
12 *364:12 *1751:A_N 0
13 *364:12 *642:26 1.54446e-05
14 *364:12 *758:16 0.000393568
15 *364:32 *1611:B1 0.000112201
16 *364:32 *1733:C 0.000144298
17 *364:32 *521:8 7.95529e-05
18 *364:32 *523:10 0.000175875
19 *364:32 *595:37 0
20 *364:32 *619:81 0.00108116
21 *364:32 *619:87 0
22 *364:32 *636:20 0.000257175
23 *364:32 *642:26 0
24 *364:32 *663:79 0
25 *364:45 *586:18 0.000244049
26 *364:53 *1618:B1 3.15716e-05
27 *364:53 *660:83 0.000446682
28 *364:53 *675:14 0
29 *1518:A2 *364:32 0
30 *1561:A1 *364:32 0
31 *1731:B *364:32 0
32 *1736:A2 *364:32 2.51839e-05
33 *300:14 *364:32 0
34 *338:10 *364:53 7.51653e-05
35 *338:18 *364:45 4.82481e-05
36 *362:16 *364:12 0
*RES
1 *1561:Y *364:12 43.2136 
2 *364:12 *1563:B 40 
3 *1561:Y *364:32 35.8311 
4 *364:32 *1611:A1 20.3193 
5 *364:32 *364:45 41.6171 
6 *364:45 *364:53 42.7243 
7 *364:53 *1618:A1 20 
*END

*D_NET *365 0.0177928
*CONN
*I *1669:C1 I *D sg13cmos5l_a221oi_1
*I *1640:C1 I *D sg13cmos5l_a221oi_1
*I *1651:C1 I *D sg13cmos5l_a221oi_1
*I *1626:C1 I *D sg13cmos5l_a221oi_1
*I *1663:A1 I *D sg13cmos5l_o21ai_1
*I *1710:C1 I *D sg13cmos5l_a221oi_1
*I *1694:C1 I *D sg13cmos5l_a221oi_1
*I *1681:C1 I *D sg13cmos5l_a221oi_1
*I *1562:Y O *D sg13cmos5l_nand2_1
*CAP
1 *1669:C1 0.00031575
2 *1640:C1 0
3 *1651:C1 6.32327e-05
4 *1626:C1 0.000496656
5 *1663:A1 0
6 *1710:C1 0
7 *1694:C1 0
8 *1681:C1 0
9 *1562:Y 0.000508448
10 *365:136 0.000239491
11 *365:128 0.000648487
12 *365:96 0.000763912
13 *365:88 0.0010905
14 *365:75 0.0013288
15 *365:64 0.000153017
16 *365:56 0.000575999
17 *365:37 0.000643069
18 *365:26 0.000413364
19 *365:20 0.00138228
20 *365:10 0.00116189
21 *1626:C1 *1623:A2 0
22 *1626:C1 *1638:B 4.77425e-05
23 *1626:C1 *392:24 0
24 *1626:C1 *437:14 0.000117582
25 *1626:C1 *449:10 0.000144025
26 *1651:C1 *449:10 0
27 *1651:C1 *674:14 0
28 *1669:C1 *1669:B2 8.00842e-05
29 *1669:C1 *408:22 0.000144179
30 *1669:C1 *673:113 7.94957e-05
31 *365:10 *1594:A2 0
32 *365:10 *1620:B 0
33 *365:10 *1679:B_N 0
34 *365:10 *397:10 0
35 *365:10 *408:22 0.000531854
36 *365:10 *619:25 0
37 *365:10 *647:74 0.000288688
38 *365:10 *711:22 0.0001127
39 *365:10 *717:119 0
40 *365:20 *373:24 0
41 *365:20 *585:56 0.000147503
42 *365:20 *647:74 0.000397114
43 *365:20 *673:113 0.000425576
44 *365:26 *1236:A 0
45 *365:26 *1681:B2 1.54008e-05
46 *365:26 *373:24 0
47 *365:26 *411:35 0
48 *365:26 *673:113 7.61537e-05
49 *365:37 *1681:B2 0.000332316
50 *365:37 *544:43 0
51 *365:37 *648:95 0
52 *365:56 *1681:B2 1.54008e-05
53 *365:56 *1717:A 7.92265e-05
54 *365:56 *1852:A 0
55 *365:56 *410:16 0.00012816
56 *365:56 *544:43 0
57 *365:56 *597:78 0.000193214
58 *365:56 *645:22 0
59 *365:56 *717:119 0
60 *365:56 *717:136 0.000111145
61 *365:64 *1710:B2 8.00842e-05
62 *365:64 *477:63 0.000236596
63 *365:64 *597:12 0
64 *365:64 *597:16 0
65 *365:75 *420:12 0
66 *365:75 *578:27 0
67 *365:75 *585:56 0
68 *365:75 *699:12 0
69 *365:88 *1259:A 0
70 *365:88 *573:37 0.000240421
71 *365:88 *576:33 0
72 *365:88 *585:50 0
73 *365:88 *654:8 4.75278e-05
74 *365:96 *1259:A 8.01609e-05
75 *365:96 *573:37 8.0216e-05
76 *365:96 *585:39 0
77 *365:96 *677:53 0
78 *365:128 *575:31 0.000462659
79 *365:128 *585:39 7.68089e-05
80 *365:136 *1270:B 4.78524e-05
81 *365:136 *1640:B2 1.54008e-05
82 *365:136 *653:60 4.77425e-05
83 *365:136 *653:68 0.000446905
84 *1545:A1 *365:88 0
85 *1637:A *1626:C1 0
86 *1639:A *1626:C1 0
87 *1691:A1 *365:10 0
88 *1693:B *365:37 0.000112426
89 *1693:B *365:56 0.000402793
90 *1693:B *365:64 8.00842e-05
91 *311:53 *365:88 1.54008e-05
92 *329:8 *365:88 0.000238031
93 *332:14 *365:75 0
94 *332:14 *365:128 8.09067e-05
95 *332:24 *365:128 0.00027752
96 *333:16 *365:96 0.000235656
97 *333:16 *365:128 2.25909e-05
98 *340:18 *365:128 0.000157904
99 *341:26 *365:96 0.000392619
100 *344:14 *1626:C1 0
101 *354:16 *365:10 0.000266599
102 *354:16 *365:20 0.000395415
*RES
1 *1562:Y *365:10 45.768 
2 *365:10 *365:20 44.8822 
3 *365:20 *365:26 21.6583 
4 *365:26 *1681:C1 20 
5 *365:26 *365:37 2.5338 
6 *365:37 *1694:C1 20 
7 *365:37 *365:56 44.7174 
8 *365:56 *365:64 41.6274 
9 *365:64 *1710:C1 20 
10 *365:20 *365:75 47.6735 
11 *365:75 *1663:A1 40 
12 *365:75 *365:88 24.6556 
13 *365:88 *365:96 42.8634 
14 *365:96 *1626:C1 24.7998 
15 *365:96 *1651:C1 20.5974 
16 *365:88 *365:128 44.7998 
17 *365:128 *365:136 42.6162 
18 *365:136 *1640:C1 20 
19 *365:10 *1669:C1 42.9149 
*END

*D_NET *366 0.00125206
*CONN
*I *1599:B I *D sg13cmos5l_nand3_1
*I *1563:Y O *D sg13cmos5l_nand2_1
*CAP
1 *1599:B 0.000491967
2 *1563:Y 0.000491967
3 *1599:B *1599:C 1.54008e-05
4 *1599:B *1599:A 1.54008e-05
5 *1599:B *625:32 0.000237325
6 *1599:B *642:18 0
7 *312:33 *1599:B 0
8 *316:6 *1599:B 0
*RES
1 *1563:Y *1599:B 44.6865 
*END

*D_NET *367 0.00380879
*CONN
*I *1565:B1 I *D sg13cmos5l_a21oi_1
*I *1564:Y O *D sg13cmos5l_a21oi_1
*CAP
1 *1565:B1 8.84283e-05
2 *1564:Y 0.000426194
3 *367:10 0.000514622
4 *1565:B1 *637:10 0
5 *367:10 *409:12 0.00120142
6 *367:10 *413:10 0.000110829
7 *367:10 *675:14 0.0014673
*RES
1 *1564:Y *367:10 47.5293 
2 *367:10 *1565:B1 40.7519 
*END

*D_NET *368 0.00193455
*CONN
*I *1570:A I *D sg13cmos5l_or4_1
*I *1569:A I *D sg13cmos5l_nor4_1
*I *1565:Y O *D sg13cmos5l_a21oi_1
*CAP
1 *1570:A 2.64976e-05
2 *1569:A 0
3 *1565:Y 0.000347732
4 *368:16 8.4587e-05
5 *368:8 0.000458816
6 *1570:A *1570:C 0
7 *368:8 *1570:C 0
8 *368:8 *407:33 0.000207558
9 *368:16 *1569:B 0.000236596
10 *368:16 *1569:C 0.000237012
11 *1498:A *368:8 0
12 *1498:B *368:8 0.000175865
13 *180:30 *368:8 0
14 *303:12 *368:8 0
15 *308:93 *1570:A 4.77425e-05
16 *308:93 *368:8 0.000112149
*RES
1 *1565:Y *368:8 23.4814 
2 *368:8 *368:16 41.4111 
3 *368:16 *1569:A 20 
4 *368:8 *1570:A 20.3193 
*END

*D_NET *369 0.00193956
*CONN
*I *1569:B I *D sg13cmos5l_nor4_1
*I *1570:B I *D sg13cmos5l_or4_1
*I *1566:Y O *D sg13cmos5l_nor2_1
*CAP
1 *1569:B 0.000127464
2 *1570:B 0
3 *1566:Y 0.000523054
4 *369:10 0.000650518
5 *1569:B *1569:C 0
6 *1569:B *1569:D 0
7 *369:10 *1569:C 0
8 *369:10 *1570:D 0
9 *369:10 *370:19 0
10 *369:10 *630:87 0.000143932
11 *369:10 *674:20 0
12 *1548:A1 *369:10 0
13 *303:18 *1569:B 0.000128408
14 *350:22 *369:10 0
15 *350:28 *369:10 0.000129592
16 *368:16 *1569:B 0.000236596
*RES
1 *1566:Y *369:10 44.4393 
2 *369:10 *1570:B 40 
3 *369:10 *1569:B 41.5862 
*END

*D_NET *370 0.00702792
*CONN
*I *1569:C I *D sg13cmos5l_nor4_1
*I *1570:C I *D sg13cmos5l_or4_1
*I *1682:A I *D sg13cmos5l_nor2b_1
*I *1567:Y O *D sg13cmos5l_nand4_1
*CAP
1 *1569:C 0.00024692
2 *1570:C 6.14794e-05
3 *1682:A 0.000136515
4 *1567:Y 0
5 *370:19 0.00126256
6 *370:6 0.00109068
7 *1569:C *372:6 1.54008e-05
8 *1569:C *372:10 0
9 *1569:C *521:30 0
10 *1569:C *672:117 2.25909e-05
11 *1682:A *1567:C 0.000183355
12 *1682:A *394:14 8.01612e-05
13 *1682:A *428:51 0
14 *370:19 *1654:B 0
15 *370:19 *372:10 0
16 *370:19 *394:14 0
17 *370:19 *452:8 0
18 *370:19 *630:36 0.00103628
19 *370:19 *630:87 0.000396629
20 *370:19 *654:142 0
21 *1498:A *1569:C 0.000182291
22 *1569:B *1569:C 0
23 *1570:A *1570:C 0
24 *180:30 *1570:C 0
25 *308:93 *1569:C 0
26 *329:25 *370:19 0
27 *346:14 *1682:A 0.000346555
28 *346:14 *370:19 0.000643363
29 *346:29 *370:19 0.00108613
30 *348:22 *1570:C 0
31 *350:28 *370:19 0
32 *368:8 *1570:C 0
33 *368:16 *1569:C 0.000237012
34 *369:10 *1569:C 0
35 *369:10 *370:19 0
*RES
1 *1567:Y *370:6 40 
2 *370:6 *1682:A 42.1218 
3 *370:6 *370:19 12.7102 
4 *370:19 *1570:C 40.5407 
5 *370:19 *1569:C 42.8325 
*END

*D_NET *371 0.00525852
*CONN
*I *1569:D I *D sg13cmos5l_nor4_1
*I *1570:D I *D sg13cmos5l_or4_1
*I *1568:Y O *D sg13cmos5l_nand4_1
*CAP
1 *1569:D 0.000202228
2 *1570:D 0.000176102
3 *1568:Y 0.000583469
4 *371:16 0.0012171
5 *371:10 0.00142224
6 *1569:D *535:10 7.4933e-05
7 *1569:D *674:20 0
8 *1570:D *674:20 0
9 *371:10 *1552:A 0
10 *371:10 *1568:B 0
11 *371:10 *410:16 0
12 *371:10 *410:71 0
13 *371:10 *563:83 0
14 *371:10 *585:56 0
15 *371:10 *759:12 0.000234726
16 *371:16 *1525:C 8.00842e-05
17 *371:16 *1547:A 0.000144441
18 *371:16 *1571:A2 0
19 *371:16 *1747:A 0
20 *371:16 *630:119 0
21 *371:16 *758:26 0.000338498
22 *1548:B1 *371:16 0
23 *1569:B *1569:D 0
24 *1754:B *371:16 0.000145272
25 *303:18 *1569:D 0.000237097
26 *308:93 *371:16 0
27 *323:23 *371:10 0.000273507
28 *324:12 *371:10 0.000128821
29 *325:14 *371:16 0
30 *350:22 *371:16 0
31 *369:10 *1570:D 0
*RES
1 *1568:Y *371:10 46.077 
2 *371:10 *371:16 47.8898 
3 *371:16 *1570:D 41.3802 
4 *371:16 *1569:D 42.0806 
*END

*D_NET *372 0.0237993
*CONN
*I *1610:A2 I *D sg13cmos5l_a221oi_1
*I *1617:A2 I *D sg13cmos5l_a221oi_1
*I *1696:A1 I *D sg13cmos5l_o21ai_1
*I *1672:A1 I *D sg13cmos5l_o21ai_1
*I *1659:B1 I *D sg13cmos5l_a21o_1
*I *1622:A1 I *D sg13cmos5l_o21ai_1
*I *1632:A1 I *D sg13cmos5l_o21ai_1
*I *1644:A1 I *D sg13cmos5l_o21ai_1
*I *1569:Y O *D sg13cmos5l_nor4_1
*CAP
1 *1610:A2 0
2 *1617:A2 2.63707e-05
3 *1696:A1 0.00010709
4 *1672:A1 0
5 *1659:B1 0
6 *1622:A1 0
7 *1632:A1 3.79495e-05
8 *1644:A1 0.000305835
9 *1569:Y 9.96824e-05
10 *372:147 0.000175244
11 *372:132 0.000578642
12 *372:115 0.00120253
13 *372:104 0
14 *372:100 0.00137111
15 *372:86 0.000162925
16 *372:78 0.0012245
17 *372:49 0.00140981
18 *372:32 0.000705158
19 *372:28 0.000649659
20 *372:22 0.00137299
21 *372:10 0.0013171
22 *372:6 0.00125712
23 *1644:A1 *1643:B 0
24 *1644:A1 *1644:A2 1.54008e-05
25 *1644:A1 *1661:A1 0
26 *1644:A1 *378:28 0.000341918
27 *1696:A1 *1687:A1 0.000112394
28 *1696:A1 *1699:A2 0
29 *372:10 *630:36 0.000447567
30 *372:10 *635:14 0
31 *372:10 *654:142 0.00151562
32 *372:10 *673:88 0
33 *372:22 *1544:A 0.000449373
34 *372:22 *393:40 0.000503838
35 *372:22 *575:31 0.000129019
36 *372:22 *585:56 0.000196353
37 *372:22 *652:24 0
38 *372:22 *652:35 0
39 *372:22 *706:85 0
40 *372:28 *1659:A1 0.000403006
41 *372:28 *1664:A1 0
42 *372:28 *652:20 0
43 *372:28 *652:24 0
44 *372:28 *706:85 0
45 *372:32 *1643:B 0.000144764
46 *372:32 *1659:A1 1.54008e-05
47 *372:32 *706:89 0
48 *372:49 *1631:B_N 0.000143932
49 *372:49 *1632:A2 0
50 *372:49 *378:28 0.000428547
51 *372:49 *585:31 0
52 *372:78 *1641:A1 0.000112426
53 *372:78 *431:10 0
54 *372:78 *439:10 2.20966e-05
55 *372:78 *449:16 3.26842e-05
56 *372:78 *608:34 7.56308e-05
57 *372:78 *650:46 0.000291059
58 *372:78 *653:60 0.000236497
59 *372:86 *1622:B1 0
60 *372:86 *1622:A2 1.54008e-05
61 *372:86 *426:10 0.000208576
62 *372:86 *608:51 7.68089e-05
63 *372:100 *420:12 0
64 *372:100 *427:12 0.000471605
65 *372:100 *649:113 0.000276608
66 *372:115 *373:24 0
67 *372:115 *420:12 0
68 *372:115 *427:12 0.00055661
69 *372:115 *476:10 0
70 *372:115 *477:33 0.00034048
71 *372:115 *544:31 0
72 *372:115 *586:128 0
73 *372:115 *648:80 0
74 *372:132 *1534:B 0
75 *372:132 *521:36 0
76 *372:147 *412:12 5.74294e-05
77 *372:147 *416:20 0.000107201
78 *372:147 *416:34 0.000132021
79 *372:147 *619:87 3.94394e-05
80 *372:147 *619:101 1.27224e-05
81 *1498:A *372:132 0
82 *1498:B *372:132 0
83 *1539:B *1644:A1 0
84 *1539:B *372:49 0
85 *1569:C *372:6 1.54008e-05
86 *1569:C *372:10 0
87 *1639:B *372:78 0.000130522
88 *1639:B *372:86 7.65627e-05
89 *65:8 *372:115 0
90 *85:8 *372:147 0.000671083
91 *103:10 *372:78 0.000176405
92 *202:67 *372:132 0
93 *203:18 *372:10 0
94 *258:74 *372:147 0.000342951
95 *308:93 *372:10 0.000238276
96 *312:51 *1617:A2 1.27224e-05
97 *337:10 *1617:A2 5.74294e-05
98 *337:10 *372:132 0.000116329
99 *338:82 *372:10 0.0020455
100 *340:18 *372:78 0
101 *370:19 *372:10 0
*RES
1 *1569:Y *372:6 20.7519 
2 *372:6 *372:10 33.2046 
3 *372:10 *372:22 46.3139 
4 *372:22 *372:28 25.0264 
5 *372:28 *372:32 20.9682 
6 *372:32 *1644:A1 42.987 
7 *372:32 *372:49 23.4814 
8 *372:49 *1632:A1 20.3502 
9 *372:49 *372:78 49.888 
10 *372:78 *372:86 41.751 
11 *372:86 *1622:A1 20 
12 *372:28 *1659:B1 20 
13 *372:22 *372:100 23.1312 
14 *372:100 *372:104 40 
15 *372:104 *1672:A1 20 
16 *372:100 *372:115 30.8356 
17 *372:115 *1696:A1 40.9682 
18 *372:6 *372:132 4.00927 
19 *372:132 *1617:A2 20.3193 
20 *372:132 *372:147 43.4145 
21 *372:147 *1610:A2 20 
*END

*D_NET *373 0.0138542
*CONN
*I *1571:A2 I *D sg13cmos5l_o21ai_1
*I *1704:B1 I *D sg13cmos5l_o21ai_1
*I *1714:A1 I *D sg13cmos5l_a21oi_1
*I *1684:B1 I *D sg13cmos5l_o21ai_1
*I *1570:X O *D sg13cmos5l_or4_1
*CAP
1 *1571:A2 0.00089767
2 *1704:B1 4.36895e-05
3 *1714:A1 0
4 *1684:B1 0.000250601
5 *1570:X 0
6 *373:51 5.97461e-05
7 *373:45 0.000430865
8 *373:37 0.00106921
9 *373:24 0.00265116
10 *373:12 0.00312258
11 *373:6 0.000478757
12 *1571:A2 *1586:A1 0
13 *1571:A2 *1747:A 7.97045e-05
14 *1571:A2 *1755:A2 0
15 *1571:A2 *539:8 0.000107089
16 *1571:A2 *708:10 0
17 *1571:A2 *758:26 0
18 *1684:B1 *1684:A2 7.32634e-06
19 *1684:B1 *1700:B1 0
20 *1684:B1 *477:33 0.000338415
21 *1684:B1 *648:80 0
22 *1684:B1 *717:10 0
23 *1704:B1 *1704:A2 8.00842e-05
24 *1704:B1 *1706:A2 1.54008e-05
25 *373:12 *637:29 0.0008694
26 *373:12 *672:126 0
27 *373:24 *475:8 0.000500119
28 *373:24 *476:10 0
29 *373:24 *539:8 7.68089e-05
30 *373:24 *585:56 0
31 *373:24 *630:119 0
32 *373:24 *647:74 0
33 *373:24 *648:80 0
34 *373:24 *677:30 0
35 *373:37 *1693:A 4.77425e-05
36 *373:37 *1700:B1 0
37 *373:37 *1704:A2 8.28967e-05
38 *373:37 *477:33 0.000144063
39 *373:37 *645:22 9.71345e-05
40 *373:37 *645:37 4.77425e-05
41 *373:37 *717:105 0
42 *373:45 *477:46 7.68089e-05
43 *373:45 *646:30 4.82481e-05
44 *373:45 *646:90 0.000211669
45 *373:45 *706:54 0.000603522
46 *373:51 *1714:A2 1.54008e-05
47 *373:51 *1958:A 0
48 *373:51 *706:48 0
49 *1508:A *1571:A2 0.000209572
50 *1563:A *1571:A2 0
51 *1571:B1 *1571:A2 6.99179e-05
52 *1571:A1 *1571:A2 0
53 *1609:A *1571:A2 0
54 *1714:B1 *373:51 0
55 *356:12 *373:24 0.000288097
56 *356:18 *373:24 0.000415382
57 *356:22 *373:24 0.000340835
58 *358:8 *373:24 7.65627e-05
59 *365:20 *373:24 0
60 *365:26 *373:24 0
61 *371:16 *1571:A2 0
62 *372:115 *373:24 0
*RES
1 *1570:X *373:6 40 
2 *373:6 *373:12 45.7268 
3 *373:12 *373:24 38.746 
4 *373:24 *1684:B1 22.4823 
5 *373:24 *373:37 6.0255 
6 *373:37 *373:45 44.3466 
7 *373:45 *373:51 40.5356 
8 *373:51 *1714:A1 20 
9 *373:37 *1704:B1 20.5356 
10 *373:12 *1571:A2 47.2457 
*END

*D_NET *374 0.000534495
*CONN
*I *1586:A1 I *D sg13cmos5l_a21o_1
*I *1571:Y O *D sg13cmos5l_o21ai_1
*CAP
1 *1586:A1 0.00025952
2 *1571:Y 0.00025952
3 *1586:A1 *1586:A2 0
4 *1586:A1 *1599:C 0
5 *1586:A1 *684:12 0
6 *1586:A1 *684:139 1.54556e-05
7 *1509:B *1586:A1 0
8 *1571:B1 *1586:A1 0
9 *1571:A2 *1586:A1 0
10 *362:29 *1586:A1 0
*RES
1 *1571:Y *1586:A1 42.578 
*END

*D_NET *375 0.00138123
*CONN
*I *1615:B I *D sg13cmos5l_xnor2_1
*I *1605:A_N I *D sg13cmos5l_nand2b_1
*I *1572:Y O *D sg13cmos5l_nor3_1
*CAP
1 *1615:B 0.000174204
2 *1605:A_N 0
3 *1572:Y 3.40788e-05
4 *375:14 0.000253091
5 *375:6 0.000461374
6 *1615:B *1604:B1 0
7 *1615:B *1619:B2 0
8 *375:14 *1603:A2 0.000143932
9 *375:14 *1605:B 1.54008e-05
10 *375:14 *619:101 0.000283744
11 *375:14 *635:78 0
12 *1615:A *1615:B 1.54008e-05
*RES
1 *1572:Y *375:6 20.3502 
2 *375:6 *375:14 42.4926 
3 *375:14 *1605:A_N 20 
4 *375:6 *1615:B 21.4008 
*END

*D_NET *376 0.00294414
*CONN
*I *1588:S I *D sg13cmos5l_mux2_1
*I *1575:A I *D sg13cmos5l_xor2_1
*I *1573:Y O *D sg13cmos5l_nor4_1
*CAP
1 *1588:S 9.1763e-05
2 *1575:A 0.000210552
3 *1573:Y 0.000254084
4 *376:12 0.000556399
5 *1575:A *573:31 0.000144768
6 *1588:S *1625:A1 0
7 *1588:S *390:8 1.54556e-05
8 *376:12 *1258:A 4.77425e-05
9 *376:12 *1604:A1 0
10 *1625:S *1588:S 0
11 *80:24 *1575:A 0.000182626
12 *80:32 *1575:A 0.000234416
13 *81:8 *1575:A 0.000504436
14 *81:8 *376:12 0.000556852
15 *336:20 *1588:S 0.000145042
*RES
1 *1573:Y *376:12 42.9973 
2 *376:12 *1575:A 43.296 
3 *376:12 *1588:S 40.9682 
*END

*D_NET *377 0.00181021
*CONN
*I *1588:A1 I *D sg13cmos5l_mux2_1
*I *1575:B I *D sg13cmos5l_xor2_1
*I *1621:A2 I *D sg13cmos5l_a21oi_1
*I *1574:Y O *D sg13cmos5l_xnor2_1
*CAP
1 *1588:A1 0
2 *1575:B 0
3 *1621:A2 5.51579e-05
4 *1574:Y 0.000170285
5 *377:14 0.00026818
6 *377:8 0.000383307
7 *1621:A2 *378:16 0.000181694
8 *1621:A2 *391:8 0
9 *377:8 *390:8 0
10 *377:8 *573:31 0
11 *377:14 *1625:A1 1.54008e-05
12 *377:14 *391:8 0
13 *1621:A1 *1621:A2 0.000234727
14 *1621:A1 *377:14 0.00023547
15 *1625:S *377:14 0.00026599
16 *81:8 *377:14 0
*RES
1 *1574:Y *377:8 21.5347 
2 *377:8 *377:14 22.6471 
3 *377:14 *1621:A2 41.0918 
4 *377:14 *1575:B 40 
5 *377:8 *1588:A1 20 
*END

*D_NET *378 0.0145908
*CONN
*I *1623:A1 I *D sg13cmos5l_o21ai_1
*I *1577:D I *D sg13cmos5l_nor4_1
*I *1633:A2 I *D sg13cmos5l_o21ai_1
*I *1576:C I *D sg13cmos5l_nor3_1
*I *1575:X O *D sg13cmos5l_xor2_1
*CAP
1 *1623:A1 0
2 *1577:D 2.20305e-05
3 *1633:A2 0
4 *1576:C 0.000178018
5 *1575:X 0.000570914
6 *378:57 9.25593e-05
7 *378:51 0.0010701
8 *378:45 0.00120086
9 *378:28 0.0014778
10 *378:22 0.00139287
11 *378:16 0.000865291
12 *1576:C *1576:B 9.5485e-05
13 *1576:C *1645:B 8.00842e-05
14 *1576:C *654:22 6.46834e-05
15 *1576:C *654:28 8.00842e-05
16 *1577:D *380:8 3.15908e-05
17 *378:16 *1234:A 0.000340704
18 *378:16 *391:8 0.000288174
19 *378:16 *561:10 8.00842e-05
20 *378:16 *673:61 0.000363871
21 *378:22 *411:20 0
22 *378:22 *449:16 0.000376047
23 *378:22 *608:57 0
24 *378:22 *650:36 0
25 *378:28 *1576:B 5.69687e-05
26 *378:28 *573:37 0.000449918
27 *378:28 *585:31 0.000290751
28 *378:28 *610:35 0
29 *378:28 *654:22 0.000112057
30 *378:45 *610:35 0.000355895
31 *378:51 *610:20 0.000926982
32 *378:51 *610:35 0.00127899
33 *378:51 *717:50 0
34 *378:57 *650:70 0.000234224
35 *378:57 *654:88 0
36 *1536:A *1576:C 0
37 *1539:B *378:28 0
38 *1621:A1 *378:16 0
39 *1621:A2 *378:16 0.000181694
40 *1644:A1 *378:28 0.000341918
41 *44:8 *378:51 0.00034162
42 *82:8 *378:28 0
43 *332:35 *378:28 0
44 *334:26 *378:28 0.000398979
45 *344:14 *378:16 0.000521038
46 *372:49 *378:28 0.000428547
*RES
1 *1575:X *378:16 48.0237 
2 *378:16 *378:22 42.9149 
3 *378:22 *378:28 31.9789 
4 *378:28 *1576:C 22.1012 
5 *378:28 *378:45 22.1527 
6 *378:45 *378:51 32.7205 
7 *378:51 *378:57 41.0918 
8 *378:57 *1633:A2 20 
9 *378:45 *1577:D 40.2112 
10 *378:16 *1623:A1 40 
*END

*D_NET *379 0.00525122
*CONN
*I *1634:A I *D sg13cmos5l_nor2b_1
*I *1645:B I *D sg13cmos5l_xnor2_1
*I *1576:Y O *D sg13cmos5l_nor3_1
*CAP
1 *1634:A 0.000197405
2 *1645:B 0.000831984
3 *1576:Y 0.000268364
4 *379:24 0.000761025
5 *1634:A *603:14 0.00027326
6 *1645:B *1576:B 0
7 *1645:B *1577:A 0.000208615
8 *1645:B *1645:A 1.54008e-05
9 *1645:B *653:112 0
10 *1645:B *654:28 0
11 *379:24 *1645:A 8.00842e-05
12 *379:24 *653:24 8.00842e-05
13 *379:24 *654:49 0.00129902
14 *379:24 *669:10 0.00012816
15 *379:24 *669:30 0.000638546
16 *379:24 *669:54 0.000213286
17 *379:24 *749:8 0.00012816
18 *1576:C *1645:B 8.00842e-05
19 *102:16 *379:24 0
20 *103:29 *1645:B 4.77425e-05
*RES
1 *1576:Y *1645:B 42.6162 
2 *1645:B *379:24 48.3018 
3 *379:24 *1634:A 41.8334 
*END

*D_NET *380 0.00182917
*CONN
*I *1578:B I *D sg13cmos5l_nand2b_1
*I *1660:B I *D sg13cmos5l_xor2_1
*I *1577:Y O *D sg13cmos5l_nor4_1
*CAP
1 *1578:B 0.000404242
2 *1660:B 0
3 *1577:Y 0.000231309
4 *380:8 0.000635552
5 *1578:B *1660:A 0
6 *1578:B *649:51 0
7 *1578:B *649:62 1.54556e-05
8 *1578:B *653:14 0.000511016
9 *380:8 *1660:A 0
10 *380:8 *653:14 0
11 *380:8 *653:16 0
12 *380:8 *719:12 0
13 *1577:D *380:8 3.15908e-05
*RES
1 *1577:Y *380:8 22.1836 
2 *380:8 *1660:B 20 
3 *380:8 *1578:B 24.4496 
*END

*D_NET *381 0.00526528
*CONN
*I *1685:A2 I *D sg13cmos5l_o21ai_1
*I *1579:C I *D sg13cmos5l_or3_1
*I *1673:B I *D sg13cmos5l_xnor2_1
*I *1578:Y O *D sg13cmos5l_nand2b_1
*CAP
1 *1685:A2 0.000164524
2 *1579:C 0.000428241
3 *1673:B 0
4 *1578:Y 0.000153444
5 *381:21 0.000873925
6 *381:12 0.000423841
7 *381:8 0.000296125
8 *1579:C *1579:A 0
9 *1579:C *1579:B 0
10 *1579:C *1698:A1 0
11 *1579:C *1957:A 0.000176861
12 *1579:C *411:43 0
13 *1579:C *648:61 0.00018144
14 *1579:C *684:58 8.01064e-05
15 *1685:A2 *1685:B1 0.0001441
16 *1685:A2 *1685:A1 0.0001441
17 *1685:A2 *648:61 0.000450452
18 *381:8 *411:43 7.54629e-05
19 *381:8 *649:62 0
20 *381:8 *652:20 0
21 *381:12 *1674:A2 0
22 *381:12 *1675:A2 0
23 *381:12 *411:43 0.000175798
24 *381:21 *1675:A2 0
25 *381:21 *411:43 0.000451167
26 *1673:A *381:12 1.54556e-05
27 *1673:A *381:21 0.000240739
28 *35:22 *1579:C 0
29 *111:12 *381:8 0.000181695
30 *342:18 *1579:C 0.000181942
31 *342:18 *1685:A2 0.000425859
*RES
1 *1578:Y *381:8 41.8334 
2 *381:8 *381:12 21.4008 
3 *381:12 *1673:B 20 
4 *381:12 *381:21 23.1312 
5 *381:21 *1579:C 44.326 
6 *381:21 *1685:A2 43.0488 
*END

*D_NET *382 0.00554204
*CONN
*I *1697:B I *D sg13cmos5l_xor2_1
*I *1580:B I *D sg13cmos5l_nor2_1
*I *1582:D I *D sg13cmos5l_nor4_1
*I *1686:A I *D sg13cmos5l_nand2_1
*I *1579:X O *D sg13cmos5l_or3_1
*CAP
1 *1697:B 2.40776e-05
2 *1580:B 0.000507364
3 *1582:D 4.48607e-05
4 *1686:A 5.20024e-05
5 *1579:X 0.000429645
6 *382:34 0.0010846
7 *382:28 0.000768683
8 *382:10 0.000269415
9 *1580:B *1704:A1 4.6793e-05
10 *1580:B *385:29 0
11 *1580:B *499:8 0.000267014
12 *1580:B *644:64 0
13 *1580:B *644:77 0.000447845
14 *1580:B *644:87 0.000287394
15 *1580:B *684:36 0
16 *1582:D *1582:C 7.97665e-05
17 *1582:D *1711:A1 7.97665e-05
18 *382:10 *1579:A 0
19 *382:10 *1689:A2 0
20 *382:10 *481:8 0
21 *382:10 *631:14 0.000128248
22 *382:10 *717:16 0.00023464
23 *382:28 *1689:A1 0
24 *382:28 *1689:A2 0
25 *382:28 *1697:A 0
26 *382:28 *491:10 0
27 *382:28 *646:46 0
28 *382:28 *684:58 0
29 *382:34 *1697:A 0
30 *382:34 *1711:A1 0.000144582
31 *382:34 *1715:B 0
32 *382:34 *1820:CLK 0
33 *382:34 *499:8 0.000129595
34 *382:34 *644:64 0
35 *382:34 *646:46 0.000435664
36 *382:34 *684:42 0
37 *382:34 *684:58 0
38 *35:22 *1686:A 8.00842e-05
39 *37:12 *382:34 0
*RES
1 *1579:X *382:10 42.2763 
2 *382:10 *1686:A 40.5356 
3 *1579:X *382:28 22.1486 
4 *382:28 *382:34 25.459 
5 *382:34 *1582:D 40.5356 
6 *382:34 *1580:B 45.562 
7 *382:28 *1697:B 20.3502 
*END

*D_NET *383 0.00194063
*CONN
*I *1581:B I *D sg13cmos5l_nand2b_1
*I *1705:B I *D sg13cmos5l_xor2_1
*I *1580:Y O *D sg13cmos5l_nor2_1
*CAP
1 *1581:B 5.37171e-05
2 *1705:B 0.000124819
3 *1580:Y 0.000126939
4 *383:8 0.000305474
5 *1581:B *1581:A_N 8.00842e-05
6 *1581:B *1718:A 1.54008e-05
7 *1705:B *498:12 0.000368663
8 *1705:B *569:8 0.000341119
9 *383:8 *569:8 0.000395234
10 *383:8 *645:10 0.000129186
11 *383:8 *684:36 0
*RES
1 *1580:Y *383:8 41.8334 
2 *383:8 *1705:B 42.1218 
3 *383:8 *1581:B 40.5356 
*END

*D_NET *384 0.000639908
*CONN
*I *1716:A2 I *D sg13cmos5l_a21oi_1
*I *1581:Y O *D sg13cmos5l_nand2b_1
*CAP
1 *1716:A2 0.000260112
2 *1581:Y 0.000260112
3 *1716:A2 *1582:C 0
4 *1716:A2 *1718:A 0.000119683
5 *1716:A2 *1718:B 0
6 *1716:A2 *1719:B 0
7 *1716:A2 *643:86 0
*RES
1 *1581:Y *1716:A2 42.6033 
*END

*D_NET *385 0.010736
*CONN
*I *1728:A0 I *D sg13cmos5l_mux2_1
*I *1583:B I *D sg13cmos5l_nand2_1
*I *1715:B I *D sg13cmos5l_and2_1
*I *1582:Y O *D sg13cmos5l_nor4_1
*CAP
1 *1728:A0 0.000237883
2 *1583:B 0
3 *1715:B 0.000574288
4 *1582:Y 7.36307e-05
5 *385:29 0.00139957
6 *385:8 0.00180961
7 *1715:B *1705:A 0
8 *1715:B *1707:B 0
9 *1715:B *1711:A1 0.000103168
10 *1715:B *1715:A 8.01609e-05
11 *1715:B *1820:CLK 0
12 *1715:B *499:8 0.000342659
13 *1728:A0 *1727:A0 0
14 *1728:A0 *1728:A1 1.54008e-05
15 *385:8 *646:38 1.55212e-05
16 *385:29 *1727:A0 0.000176293
17 *385:29 *410:56 7.65627e-05
18 *385:29 *499:8 0.00018211
19 *385:29 *503:10 0
20 *385:29 *544:74 0
21 *385:29 *644:87 0.00146104
22 *1558:B *385:29 0
23 *1580:B *385:29 0
24 *1583:A *1728:A0 0.000184858
25 *66:12 *1715:B 0
26 *66:12 *385:8 4.7947e-05
27 *311:18 *385:29 0
28 *311:22 *385:29 0.000876876
29 *311:30 *385:29 0.00146286
30 *358:30 *385:29 0.00156786
31 *362:39 *1728:A0 4.77425e-05
32 *382:34 *1715:B 0
*RES
1 *1582:Y *385:8 40.9682 
2 *385:8 *1715:B 45.6032 
3 *385:8 *385:29 38.4988 
4 *385:29 *1583:B 20 
5 *385:29 *1728:A0 22.1836 
*END

*D_NET *386 0.00290227
*CONN
*I *1609:B I *D sg13cmos5l_nand2_1
*I *1608:B I *D sg13cmos5l_and2_1
*I *1584:B I *D sg13cmos5l_or2_1
*I *1583:Y O *D sg13cmos5l_nand2_1
*CAP
1 *1609:B 0
2 *1608:B 9.05515e-05
3 *1584:B 0
4 *1583:Y 0.000225183
5 *386:19 0.000523589
6 *386:10 0.000433037
7 *386:8 0.000225183
8 *386:8 *1558:A 0
9 *386:8 *520:20 0.000502587
10 *386:8 *619:10 0
11 *386:8 *619:53 0.000287246
12 *386:19 *1584:A 3.24516e-05
13 *386:19 *563:83 0
14 *386:19 *619:63 0.000143171
15 *1558:B *386:8 0.000128824
16 *1559:A1 *386:19 0
17 *1571:A1 *386:19 0
18 *1608:A *386:19 0
19 *1609:A *386:19 0
20 *1867:A *386:8 0.000181096
21 *310:43 *386:19 8.01609e-05
22 *311:6 *386:19 4.77425e-05
23 *311:120 *386:19 1.4508e-06
24 *362:6 *386:19 0
*RES
1 *1583:Y *386:8 43.5638 
2 *386:8 *386:10 20 
3 *386:10 *1584:B 20 
4 *386:10 *386:19 3.914 
5 *386:19 *1608:B 21.0918 
6 *386:19 *1609:B 20 
*END

*D_NET *387 0.000296345
*CONN
*I *1586:A2 I *D sg13cmos5l_a21o_1
*I *1584:X O *D sg13cmos5l_or2_1
*CAP
1 *1586:A2 0.000148172
2 *1584:X 0.000148172
3 *1586:A1 *1586:A2 0
4 *362:29 *1586:A2 0
*RES
1 *1584:X *1586:A2 41.169 
*END

*D_NET *388 0.000416814
*CONN
*I *1606:A1 I *D sg13cmos5l_a21oi_1
*I *1585:Y O *D sg13cmos5l_nor2_1
*CAP
1 *1606:A1 0.000192979
2 *1585:Y 0.000192979
3 *1606:A1 *1606:A2 1.54556e-05
4 *1606:A1 *399:16 0
5 *1606:A1 *408:35 1.54008e-05
6 *1606:A1 *619:25 0
*RES
1 *1585:Y *1606:A1 42.1939 
*END

*D_NET *389 0.000432991
*CONN
*I *1599:C I *D sg13cmos5l_nand3_1
*I *1586:X O *D sg13cmos5l_a21o_1
*CAP
1 *1599:C 0.000201095
2 *1586:X 0.000201095
3 *1599:C *1600:A1 0
4 *1599:C *625:32 1.54008e-05
5 *1599:C *684:139 0
6 *1586:A1 *1599:C 0
7 *1599:B *1599:C 1.54008e-05
*RES
1 *1586:X *1599:C 42.1218 
*END

*D_NET *390 0.002301
*CONN
*I *1588:A0 I *D sg13cmos5l_mux2_1
*I *1625:A1 I *D sg13cmos5l_mux2_1
*I *1587:Y O *D sg13cmos5l_xnor2_1
*CAP
1 *1588:A0 0
2 *1625:A1 0.000371046
3 *1587:Y 0.000507883
4 *390:8 0.000878929
5 *1625:A1 *1942:A 0
6 *1625:A1 *573:31 4.78521e-05
7 *390:8 *1574:B 8.02431e-05
8 *390:8 *637:10 1.54008e-05
9 *1574:A *390:8 8.00842e-05
10 *1588:S *1625:A1 0
11 *1588:S *390:8 1.54556e-05
12 *1625:A0 *1625:A1 0.000121666
13 *1625:S *1625:A1 0.000167038
14 *336:20 *390:8 0
15 *377:8 *390:8 0
16 *377:14 *1625:A1 1.54008e-05
*RES
1 *1587:Y *390:8 24.3775 
2 *390:8 *1625:A1 24.0685 
3 *390:8 *1588:A0 20 
*END

*D_NET *391 0.00435409
*CONN
*I *1637:C I *D sg13cmos5l_nand3_1
*I *1589:A2 I *D sg13cmos5l_a21o_1
*I *1626:A1 I *D sg13cmos5l_a221oi_1
*I *1588:X O *D sg13cmos5l_mux2_1
*CAP
1 *1637:C 0.000185067
2 *1589:A2 0.000252947
3 *1626:A1 9.83495e-05
4 *1588:X 0.000456063
5 *391:10 0.000536363
6 *391:8 0.000456063
7 *1626:A1 *1626:B1 8.0216e-05
8 *1626:A1 *673:49 1.27224e-05
9 *1637:C *673:49 0.000173588
10 *391:8 *392:12 0.000235904
11 *1589:A1 *1589:A2 8.00842e-05
12 *1589:A1 *1626:A1 0
13 *1621:A2 *391:8 0
14 *1637:B *1637:C 0.000208615
15 *80:32 *391:8 0
16 *81:8 *391:8 0.0010332
17 *344:22 *1589:A2 0.000111839
18 *344:22 *1637:C 0.000144899
19 *377:14 *391:8 0
20 *378:16 *391:8 0.000288174
*RES
1 *1588:X *391:8 46.283 
2 *391:8 *391:10 20 
3 *391:10 *1626:A1 21.133 
4 *391:10 *1589:A2 22.2763 
5 *391:10 *1637:C 22.266 
*END

*D_NET *392 0.00587667
*CONN
*I *1590:A2 I *D sg13cmos5l_a21oi_1
*I *1648:C I *D sg13cmos5l_nand3_1
*I *1638:A I *D sg13cmos5l_and2_1
*I *1589:X O *D sg13cmos5l_a21o_1
*CAP
1 *1590:A2 0.000332285
2 *1648:C 2.79587e-05
3 *1638:A 0
4 *1589:X 0.000240164
5 *392:35 0.000664054
6 *392:24 0.00035046
7 *392:16 0.000932122
8 *392:12 0.000518017
9 *1590:A2 *612:45 0
10 *1590:A2 *677:53 0.000265822
11 *1648:C *1649:B_N 4.78524e-05
12 *392:12 *426:10 0.000144102
13 *392:12 *608:51 1.65725e-05
14 *392:12 *673:61 0
15 *392:16 *574:14 0
16 *392:24 *1638:B 8.00842e-05
17 *392:24 *436:8 0.000130007
18 *392:24 *449:10 0
19 *392:24 *573:37 0
20 *392:35 *447:16 0.000289933
21 *392:35 *574:14 0
22 *392:35 *612:45 0
23 *392:35 *677:53 0.000608487
24 *1626:C1 *392:24 0
25 *1637:A *392:12 3.23965e-05
26 *1637:A *392:24 8.00842e-05
27 *1648:B *1648:C 1.54556e-05
28 *80:8 *1590:A2 0.000258161
29 *80:18 *1590:A2 4.78524e-05
30 *80:32 *392:12 0.000447193
31 *80:36 *392:12 0.000111705
32 *341:10 *1590:A2 0
33 *391:8 *392:12 0.000235904
*RES
1 *1589:X *392:12 43.399 
2 *392:12 *392:16 23.1312 
3 *392:16 *392:24 43.5123 
4 *392:24 *1638:A 20 
5 *392:16 *392:35 24.223 
6 *392:35 *1648:C 40.3193 
7 *392:35 *1590:A2 43.3887 
*END

*D_NET *393 0.00750018
*CONN
*I *1591:B I *D sg13cmos5l_nor2_1
*I *1592:A2 I *D sg13cmos5l_o21ai_1
*I *1649:A I *D sg13cmos5l_nor2b_1
*I *1590:Y O *D sg13cmos5l_a21oi_1
*CAP
1 *1591:B 0
2 *1592:A2 0.000625892
3 *1649:A 6.03029e-05
4 *1590:Y 0.000209699
5 *393:40 0.000831711
6 *393:12 0.000686195
7 *393:10 0.00104141
8 *1592:A2 *1566:A 0
9 *1592:A2 *630:12 4.74263e-05
10 *1592:A2 *630:30 0.000110935
11 *393:10 *1566:A 1.54008e-05
12 *393:10 *416:34 0.00034349
13 *393:10 *673:82 0
14 *393:40 *1544:A 0
15 *393:40 *1616:A 0.000394003
16 *393:40 *394:14 0
17 *393:40 *416:34 0.00104566
18 *393:40 *544:21 0
19 *393:40 *673:35 0.000158677
20 *393:40 *673:82 0.000583547
21 *393:40 *706:85 2.19989e-05
22 *1590:B1 *393:10 4.77425e-05
23 *1592:B1 *1592:A2 0.000112558
24 *1648:A *1649:A 1.54008e-05
25 *1654:A *1592:A2 0
26 *342:18 *1592:A2 6.43657e-05
27 *342:18 *1649:A 8.00842e-05
28 *346:29 *1592:A2 0.000370587
29 *348:14 *393:40 0.00012925
30 *372:22 *393:40 0.000503838
*RES
1 *1590:Y *393:10 42.3381 
2 *393:10 *393:12 20 
3 *393:12 *1649:A 20.5356 
4 *393:12 *1592:A2 26.18 
5 *393:10 *393:40 31.536 
6 *393:40 *1591:B 20 
*END

*D_NET *394 0.00395014
*CONN
*I *1654:B I *D sg13cmos5l_xnor2_1
*I *1591:Y O *D sg13cmos5l_nor2_1
*CAP
1 *1654:B 0.00044584
2 *1591:Y 0.00068756
3 *394:14 0.0011334
4 *1654:B *452:8 0
5 *394:14 *1567:D 4.78521e-05
6 *394:14 *428:51 0
7 *394:14 *576:48 0
8 *394:14 *756:36 0
9 *1682:A *394:14 8.01612e-05
10 *329:25 *394:14 0.000181325
11 *330:8 *1654:B 0
12 *330:8 *394:14 0.000393929
13 *334:16 *394:14 0
14 *346:29 *1654:B 0.000980069
15 *370:19 *1654:B 0
16 *370:19 *394:14 0
17 *393:40 *394:14 0
*RES
1 *1591:Y *394:14 47.3336 
2 *394:14 *1654:B 45.2942 
*END

*D_NET *395 0.000551055
*CONN
*I *1666:C I *D sg13cmos5l_nand3_1
*I *1593:A2 I *D sg13cmos5l_a21o_1
*I *1592:Y O *D sg13cmos5l_o21ai_1
*CAP
1 *1666:C 0.000109207
2 *1593:A2 0
3 *1592:Y 0.00015862
4 *395:8 0.000267827
5 *1666:C *1546:A 0
6 *1666:C *1566:A 0
7 *395:8 *1566:A 0
8 *395:8 *574:43 0
9 *1592:B1 *395:8 0
10 *342:18 *395:8 0
11 *349:21 *1666:C 1.54008e-05
*RES
1 *1592:Y *395:8 21.4163 
2 *395:8 *1593:A2 20 
3 *395:8 *1666:C 21.2824 
*END

*D_NET *396 0.00397476
*CONN
*I *1594:A2 I *D sg13cmos5l_a21oi_1
*I *1667:A I *D sg13cmos5l_and2_1
*I *1678:C I *D sg13cmos5l_nand3_1
*I *1593:X O *D sg13cmos5l_a21o_1
*CAP
1 *1594:A2 0.000244968
2 *1667:A 3.64002e-05
3 *1678:C 0.000104045
4 *1593:X 0.000258089
5 *396:25 0.000281368
6 *396:12 0.000362134
7 *1594:A2 *1667:B 8.00842e-05
8 *1594:A1 *1594:A2 0.000338075
9 *1594:A1 *1678:C 0.000290458
10 *1668:B *1667:A 1.54008e-05
11 *325:14 *396:12 0.000817771
12 *353:19 *1678:C 0.000290458
13 *353:38 *1678:C 7.51285e-05
14 *353:38 *396:12 0.000780379
15 *365:10 *1594:A2 0
*RES
1 *1593:X *396:12 44.6659 
2 *396:12 *1678:C 41.9055 
3 *396:12 *396:25 20 
4 *396:25 *1667:A 20.3193 
5 *396:25 *1594:A2 22.4823 
*END

*D_NET *397 0.00261976
*CONN
*I *1595:C I *D sg13cmos5l_nor3_1
*I *1596:D I *D sg13cmos5l_nor4_1
*I *1679:A I *D sg13cmos5l_nor2b_1
*I *1691:A2 I *D sg13cmos5l_o21ai_1
*I *1594:Y O *D sg13cmos5l_a21oi_1
*CAP
1 *1595:C 0
2 *1596:D 0
3 *1679:A 0
4 *1691:A2 0
5 *1594:Y 0.000216261
6 *397:51 0.000189468
7 *397:38 0.000422587
8 *397:25 0.000133386
9 *397:17 0.000389161
10 *397:10 0.000238917
11 *397:10 *1679:B_N 0
12 *397:10 *1691:B1 1.54008e-05
13 *397:10 *711:22 0
14 *397:17 *1691:B1 3.23417e-05
15 *397:25 *1553:A 0.000395229
16 *397:25 *420:8 0
17 *397:25 *485:8 0.000288087
18 *397:38 *1691:B1 1.1718e-05
19 *397:38 *399:16 1.54008e-05
20 *397:51 *399:16 8.00842e-05
21 *397:51 *645:87 0.000128576
22 *1595:B *397:51 0
23 *1596:C *397:38 1.54008e-05
24 *1596:C *397:51 3.23417e-05
25 *1691:A1 *397:10 0
26 *1691:A1 *397:38 1.54008e-05
27 *365:10 *397:10 0
*RES
1 *1594:Y *397:10 22.1012 
2 *397:10 *1691:A2 20 
3 *397:10 *397:17 0.3193 
4 *397:17 *397:25 42.1527 
5 *397:25 *1679:A 20 
6 *397:17 *397:38 2.1733 
7 *397:38 *1596:D 20 
8 *397:38 *397:51 41.8746 
9 *397:51 *1595:C 20 
*END

*D_NET *398 0.000737363
*CONN
*I *1708:B I *D sg13cmos5l_xor2_1
*I *1692:A_N I *D sg13cmos5l_nand2b_1
*I *1595:Y O *D sg13cmos5l_nor3_1
*CAP
1 *1708:B 0.000213021
2 *1692:A_N 0
3 *1595:Y 0.000124798
4 *398:10 0.000337819
5 *1708:B *1595:A 0
6 *1708:B *1692:B 1.54556e-05
7 *1708:B *1694:A1 0
8 *1708:B *1694:A2 0
9 *1708:B *1708:A 1.54008e-05
10 *1708:B *1710:A2 0
11 *1708:B *645:72 0
12 *398:10 *1595:A 1.54556e-05
13 *398:10 *1692:B 0
14 *398:10 *1708:A 0
15 *398:10 *645:72 0
16 *1595:B *398:10 0
17 *311:53 *398:10 1.5412e-05
*RES
1 *1595:Y *398:10 21.4832 
2 *398:10 *1692:A_N 20 
3 *398:10 *1708:B 21.8334 
*END

*D_NET *399 0.00415498
*CONN
*I *1606:A2 I *D sg13cmos5l_a21oi_1
*I *1720:A2 I *D sg13cmos5l_o21ai_1
*I *1597:C I *D sg13cmos5l_and3_1
*I *1596:Y O *D sg13cmos5l_nor4_1
*CAP
1 *1606:A2 0.000120646
2 *1720:A2 0.000279352
3 *1597:C 0.000190208
4 *1596:Y 0.000267897
5 *399:26 0.000469561
6 *399:24 0.000506123
7 *399:16 0.000894666
8 *1606:A2 *408:35 7.68089e-05
9 *1606:A2 *619:25 4.78524e-05
10 *1606:A2 *642:36 0
11 *1720:A2 *1722:B1 0
12 *1720:A2 *594:6 0
13 *399:16 *1596:B 0
14 *399:16 *1606:B1 0.000122893
15 *399:16 *408:22 0
16 *399:16 *642:36 7.92265e-05
17 *1597:B *1597:C 0
18 *1606:A1 *1606:A2 1.54556e-05
19 *1606:A1 *399:16 0
20 *1691:A1 *399:16 1.54008e-05
21 *1720:A1 *1597:C 4.69735e-05
22 *1720:A1 *1720:A2 0.000434087
23 *1720:A1 *399:24 7.65627e-05
24 *311:100 *1597:C 9.22738e-05
25 *311:100 *1720:A2 0.000111839
26 *363:16 *399:24 0.000211669
27 *397:38 *399:16 1.54008e-05
28 *397:51 *399:16 8.00842e-05
*RES
1 *1596:Y *399:16 42.9561 
2 *399:16 *399:24 45.6444 
3 *399:24 *399:26 20 
4 *399:26 *1597:C 21.8205 
5 *399:26 *1720:A2 22.9149 
6 *399:16 *1606:A2 41.1639 
*END

*D_NET *400 0.00691849
*CONN
*I *1598:C I *D sg13cmos5l_and3_1
*I *1728:A1 I *D sg13cmos5l_mux2_1
*I *1722:A2 I *D sg13cmos5l_a22oi_1
*I *1597:X O *D sg13cmos5l_and3_1
*CAP
1 *1598:C 0.000534665
2 *1728:A1 9.94323e-05
3 *1722:A2 0
4 *1597:X 0
5 *400:33 0.00116644
6 *400:14 0.000317044
7 *400:4 0.000849382
8 *1598:C *1600:A2 0
9 *1598:C *594:16 0.000902799
10 *1598:C *684:139 0.000463946
11 *1598:C *706:10 0.000287706
12 *1728:A1 *1727:A0 0.00014463
13 *400:14 *1722:B1 3.74976e-05
14 *400:14 *1722:B2 0.000111624
15 *400:14 *594:6 6.46166e-05
16 *400:14 *594:16 0.000475094
17 *400:33 *594:16 0.000553661
18 *1720:A1 *400:14 0.00016053
19 *1728:A0 *1728:A1 1.54008e-05
20 *84:10 *400:14 0.00012816
21 *311:100 *400:33 0
22 *321:31 *1598:C 0
23 *362:29 *1598:C 0.000605863
*RES
1 *1597:X *400:4 20 
2 *400:4 *400:14 43.8631 
3 *400:14 *1722:A2 20 
4 *400:4 *400:33 25.4075 
5 *400:33 *1728:A1 40.9682 
6 *400:33 *1598:C 47.931 
*END

*D_NET *401 0.00029973
*CONN
*I *1600:A1 I *D sg13cmos5l_o21ai_1
*I *1598:X O *D sg13cmos5l_and3_1
*CAP
1 *1600:A1 0.000142164
2 *1598:X 0.000142164
3 *1600:A1 *1599:A 0
4 *1600:A1 *1600:A2 1.54008e-05
5 *1599:C *1600:A1 0
*RES
1 *1598:X *1600:A1 41.4111 
*END

*D_NET *402 0.000574003
*CONN
*I *1600:A2 I *D sg13cmos5l_o21ai_1
*I *1599:Y O *D sg13cmos5l_nand3_1
*CAP
1 *1600:A2 0.000190775
2 *1599:Y 0.000190775
3 *1600:A2 *1599:A 0
4 *1598:C *1600:A2 0
5 *1600:B1 *1600:A2 0.000177053
6 *1600:A1 *1600:A2 1.54008e-05
7 *1757:B *1600:A2 0
8 *1811:D *1600:A2 0
*RES
1 *1599:Y *1600:A2 41.9673 
*END

*D_NET *403 0.00483831
*CONN
*I *1602:B I *D sg13cmos5l_nor2_1
*I *1601:Y O *D sg13cmos5l_a21oi_1
*CAP
1 *1602:B 0.000140715
2 *1601:Y 0.000618784
3 *403:10 0.0007595
4 *1602:B *404:10 7.95529e-05
5 *1602:B *612:35 0
6 *403:10 *404:10 0.00115148
7 *403:10 *612:35 0.000501086
8 *258:62 *403:10 0.000288697
9 *302:12 *403:10 0.000130692
10 *336:20 *1602:B 0.000177335
11 *338:18 *403:10 0.000990464
12 *338:35 *403:10 0
*RES
1 *1601:Y *403:10 49.5378 
2 *403:10 *1602:B 41.5347 
*END

*D_NET *404 0.00371211
*CONN
*I *1603:A2 I *D sg13cmos5l_a21oi_1
*I *1602:Y O *D sg13cmos5l_nor2_1
*CAP
1 *1603:A2 0.000319628
2 *1602:Y 0.0003738
3 *404:10 0.000693427
4 *1603:A2 *1605:B 8.00842e-05
5 *1603:A2 *1619:B2 0
6 *1603:A2 *407:14 0.000144768
7 *404:10 *1258:B 0
8 *404:10 *406:16 0
9 *404:10 *407:14 0.000341197
10 *404:10 *612:35 1.54556e-05
11 *1602:B *404:10 7.95529e-05
12 *97:35 *404:10 0.00023869
13 *163:97 *1603:A2 0
14 *338:22 *404:10 0
15 *338:35 *404:10 0.000130095
16 *375:14 *1603:A2 0.000143932
17 *403:10 *404:10 0.00115148
*RES
1 *1602:Y *404:10 46.0461 
2 *404:10 *1603:A2 43.1518 
*END

*D_NET *405 0.00112494
*CONN
*I *1612:B1 I *D sg13cmos5l_a22oi_1
*I *1603:Y O *D sg13cmos5l_a21oi_1
*CAP
1 *1612:B1 2.96211e-05
2 *1603:Y 0.000103386
3 *405:8 0.000133007
4 *405:8 *571:16 0.000447326
5 *405:8 *635:88 0.000128528
6 *57:10 *1612:B1 4.77425e-05
7 *163:97 *405:8 0.000235332
*RES
1 *1603:Y *405:8 42.0806 
2 *405:8 *1612:B1 40.3193 
*END

*D_NET *406 0.00135892
*CONN
*I *1605:B I *D sg13cmos5l_nand2b_1
*I *1604:Y O *D sg13cmos5l_o21ai_1
*CAP
1 *1605:B 5.37171e-05
2 *1604:Y 0.000415707
3 *406:16 0.000469424
4 *406:16 *1604:B1 3.66718e-05
5 *406:16 *407:14 0.000287916
6 *1603:A2 *1605:B 8.00842e-05
7 *375:14 *1605:B 1.54008e-05
8 *404:10 *406:16 0
*RES
1 *1604:Y *406:16 43.8831 
2 *406:16 *1605:B 40.5356 
*END

*D_NET *407 0.00554579
*CONN
*I *1607:A I *D sg13cmos5l_nand2_1
*I *1610:B1 I *D sg13cmos5l_a221oi_1
*I *1605:Y O *D sg13cmos5l_nand2b_1
*CAP
1 *1607:A 0
2 *1610:B1 0
3 *1605:Y 0.000213618
4 *407:33 0.000446024
5 *407:18 0.000842107
6 *407:14 0.000609701
7 *407:18 *1618:B1 8.00842e-05
8 *407:18 *416:12 0
9 *407:18 *417:14 0
10 *407:18 *619:101 0.00017562
11 *407:33 *1565:A2 4.75539e-05
12 *407:33 *410:85 7.33922e-05
13 *407:33 *526:12 0.000122553
14 *407:33 *619:87 0.000129049
15 *407:33 *619:101 1.54008e-05
16 *1496:B *407:33 0.000772499
17 *1498:B *407:33 0.000876522
18 *1603:A2 *407:14 0.000144768
19 *1615:A *407:18 1.54556e-05
20 *302:12 *407:14 0.000144768
21 *368:8 *407:33 0.000207558
22 *404:10 *407:14 0.000341197
23 *406:16 *407:14 0.000287916
*RES
1 *1605:Y *407:14 43.2239 
2 *407:14 *407:18 23.3475 
3 *407:18 *1610:B1 20 
4 *407:18 *407:33 46.9216 
5 *407:33 *1607:A 20 
*END

*D_NET *408 0.00716492
*CONN
*I *1710:A1 I *D sg13cmos5l_a221oi_1
*I *1694:A1 I *D sg13cmos5l_a221oi_1
*I *1904:A I *D sg13cmos5l_buf_1
*I *1606:Y O *D sg13cmos5l_a21oi_1
*CAP
1 *1710:A1 0
2 *1694:A1 0.00049052
3 *1904:A 0
4 *1606:Y 0
5 *408:35 0.000820268
6 *408:22 0.000860413
7 *408:4 0.00119016
8 *1694:A1 *1694:B1 8.0216e-05
9 *1694:A1 *1694:A2 0
10 *1694:A1 *1710:B2 0
11 *1694:A1 *1710:B1 1.54556e-05
12 *1694:A1 *503:10 0
13 *1694:A1 *597:78 0
14 *408:22 *1562:A 0.000104321
15 *408:22 *1606:B1 4.77425e-05
16 *408:22 *619:25 0.000596538
17 *408:22 *647:74 0
18 *408:35 *1606:B1 1.61708e-05
19 *408:35 *477:63 0.000181325
20 *408:35 *597:10 0
21 *408:35 *642:44 0.000288747
22 *1594:A1 *408:22 0.000273392
23 *1606:A1 *408:35 1.54008e-05
24 *1606:A2 *408:35 7.68089e-05
25 *1669:C1 *408:22 0.000144179
26 *1708:B *1694:A1 0
27 *311:22 *408:35 0.000749207
28 *311:30 *408:35 0.000394702
29 *356:18 *408:22 0.000287501
30 *365:10 *408:22 0.000531854
31 *399:16 *408:22 0
*RES
1 *1606:Y *408:4 20 
2 *408:4 *408:22 49.8056 
3 *408:22 *1904:A 20 
4 *408:4 *408:35 45.6135 
5 *408:35 *1694:A1 24.168 
6 *408:35 *1710:A1 20 
*END

*D_NET *409 0.00398248
*CONN
*I *1611:A2 I *D sg13cmos5l_a21o_1
*I *1607:Y O *D sg13cmos5l_nand2_1
*CAP
1 *1611:A2 4.67443e-05
2 *1607:Y 0.000601987
3 *409:12 0.000648731
4 *1611:A2 *636:20 1.69409e-05
5 *409:12 *1565:A2 0.000176921
6 *409:12 *637:10 1.54556e-05
7 *409:12 *654:156 0
8 *409:12 *672:22 0.000343239
9 *409:12 *675:14 0
10 *1496:B *409:12 0
11 *80:8 *409:12 0
12 *203:18 *409:12 0
13 *337:10 *409:12 0.000931041
14 *367:10 *409:12 0.00120142
*RES
1 *1607:Y *409:12 48.9301 
2 *409:12 *1611:A2 40.4635 
*END

*D_NET *410 0.0184992
*CONN
*I *1610:B2 I *D sg13cmos5l_a221oi_1
*I *1617:B1 I *D sg13cmos5l_a221oi_1
*I *1706:B2 I *D sg13cmos5l_a221oi_1
*I *1687:B2 I *D sg13cmos5l_a221oi_1
*I *1661:B2 I *D sg13cmos5l_a221oi_1
*I *1608:X O *D sg13cmos5l_and2_1
*CAP
1 *1610:B2 0
2 *1617:B1 0.000353748
3 *1706:B2 0
4 *1687:B2 3.53628e-05
5 *1661:B2 2.45999e-05
6 *1608:X 3.84324e-05
7 *410:85 0.000452593
8 *410:75 0.000990664
9 *410:71 0.00164871
10 *410:56 0.000307479
11 *410:28 0.000842722
12 *410:22 0.0013865
13 *410:16 0.00234971
14 *410:8 0.00230454
15 *1617:B1 *1617:B2 1.54008e-05
16 *1617:B1 *1618:B1 1.54008e-05
17 *1617:B1 *526:12 0
18 *1661:B2 *457:8 0.00012984
19 *1687:B2 *684:58 1.54008e-05
20 *410:16 *1553:A 0
21 *410:16 *411:8 0.00189062
22 *410:16 *484:16 0.000394577
23 *410:16 *488:10 0
24 *410:16 *489:10 0
25 *410:16 *579:8 0
26 *410:16 *646:8 0.000985956
27 *410:16 *717:119 0
28 *410:22 *481:8 0.000129197
29 *410:22 *482:8 7.47964e-05
30 *410:22 *597:22 0
31 *410:22 *648:61 0
32 *410:22 *706:62 0.000870612
33 *410:28 *411:60 0
34 *410:28 *654:18 0
35 *410:28 *695:87 0
36 *410:28 *706:62 0.000211669
37 *410:56 *1582:B 0
38 *410:56 *1706:C1 1.54008e-05
39 *410:56 *503:10 7.65627e-05
40 *410:56 *586:128 0
41 *410:56 *597:22 0
42 *410:56 *597:56 0
43 *410:56 *684:40 4.77425e-05
44 *410:56 *706:62 9.79493e-05
45 *410:71 *411:8 0.000183758
46 *410:71 *521:14 0.000448209
47 *410:71 *523:25 0
48 *410:71 *523:27 0
49 *410:71 *540:10 0
50 *410:71 *563:83 0
51 *410:71 *563:98 0
52 *410:71 *619:81 0
53 *410:71 *758:26 0
54 *410:75 *586:18 0
55 *410:75 *672:126 0
56 *410:85 *526:12 1.54008e-05
57 *410:85 *695:113 0
58 *1539:B *1661:B2 0.000128113
59 *1595:B *410:16 0
60 *74:10 *410:71 0.000183039
61 *258:74 *410:85 7.23189e-05
62 *312:33 *410:71 0
63 *312:37 *410:75 0.00148404
64 *324:12 *410:16 0
65 *365:56 *410:16 0.00012816
66 *371:10 *410:16 0
67 *371:10 *410:71 0
68 *385:29 *410:56 7.65627e-05
69 *407:33 *410:85 7.33922e-05
*RES
1 *1608:X *410:8 40.3193 
2 *410:8 *410:16 39.3125 
3 *410:16 *410:22 26.3242 
4 *410:22 *410:28 49.4039 
5 *410:28 *1661:B2 40.5974 
6 *410:22 *1687:B2 40.3193 
7 *410:16 *410:56 43.3681 
8 *410:56 *1706:B2 20 
9 *410:8 *410:71 46.8634 
10 *410:71 *410:75 30.7017 
11 *410:75 *410:85 41.2051 
12 *410:85 *1617:B1 24.0324 
13 *410:85 *1610:B2 20 
*END

*D_NET *411 0.0212612
*CONN
*I *1698:A1 I *D sg13cmos5l_o21ai_1
*I *1635:A1 I *D sg13cmos5l_o21ai_1
*I *1646:A1 I *D sg13cmos5l_o21ai_1
*I *1674:A1 I *D sg13cmos5l_o21ai_1
*I *1623:A2 I *D sg13cmos5l_o21ai_1
*I *1609:Y O *D sg13cmos5l_nand2_1
*CAP
1 *1698:A1 6.37759e-05
2 *1635:A1 5.33787e-05
3 *1646:A1 0
4 *1674:A1 6.95639e-05
5 *1623:A2 9.34019e-05
6 *1609:Y 0.000472313
7 *411:62 5.33787e-05
8 *411:60 0.000777282
9 *411:43 0.0016744
10 *411:37 0.000891335
11 *411:35 0.00063091
12 *411:20 0.00147532
13 *411:12 0.00235415
14 *411:8 0.000813635
15 *1623:A2 *1623:B1 1.54446e-05
16 *1635:A1 *1644:A2 0
17 *1674:A1 *1674:A2 0.00011244
18 *1698:A1 *1698:A2 1.52762e-05
19 *1698:A1 *684:58 0.000127838
20 *411:8 *642:26 0
21 *411:8 *758:26 7.54613e-05
22 *411:8 *759:38 0
23 *411:12 *585:56 0
24 *411:20 *574:14 0
25 *411:20 *585:56 0
26 *411:20 *650:36 0.00135732
27 *411:20 *654:134 0.000472285
28 *411:35 *586:128 0
29 *411:35 *647:50 0.000500821
30 *411:35 *647:74 0.00193883
31 *411:35 *648:80 0.000660577
32 *411:35 *673:113 0.0008203
33 *411:35 *684:58 7.51285e-05
34 *411:43 *1956:A 0
35 *411:43 *577:10 0
36 *411:43 *649:62 0
37 *411:43 *652:20 0
38 *411:43 *684:58 0.000241259
39 *411:60 *649:62 0
40 *411:60 *652:20 0
41 *411:60 *695:66 0.000671822
42 *411:60 *695:87 0.000622507
43 *1280:C *1674:A1 0
44 *1579:C *1698:A1 0
45 *1579:C *411:43 0
46 *1626:C1 *1623:A2 0
47 *323:23 *411:8 0
48 *342:12 *1674:A1 0
49 *342:12 *411:43 0
50 *344:14 *1623:A2 0
51 *355:8 *411:8 0.0012246
52 *355:10 *411:8 0.000129592
53 *365:26 *411:35 0
54 *378:22 *411:20 0
55 *381:8 *411:43 7.54629e-05
56 *381:12 *411:43 0.000175798
57 *381:21 *411:43 0.000451167
58 *410:16 *411:8 0.00189062
59 *410:28 *411:60 0
60 *410:71 *411:8 0.000183758
*RES
1 *1609:Y *411:8 49.4966 
2 *411:8 *411:12 23.9964 
3 *411:12 *411:20 34.6283 
4 *411:20 *1623:A2 40.8858 
5 *411:12 *411:35 31.227 
6 *411:35 *411:37 20 
7 *411:37 *411:43 27.6838 
8 *411:43 *1674:A1 40.7519 
9 *411:43 *411:60 49.1361 
10 *411:60 *411:62 20 
11 *411:62 *1646:A1 20 
12 *411:62 *1635:A1 20.5974 
13 *411:37 *1698:A1 20.7519 
*END

*D_NET *412 0.00154316
*CONN
*I *1611:B1 I *D sg13cmos5l_a21o_1
*I *1610:Y O *D sg13cmos5l_a221oi_1
*CAP
1 *1611:B1 8.29386e-05
2 *1610:Y 0.000240001
3 *412:12 0.000322939
4 *412:12 *526:12 0.000235658
5 *412:12 *636:20 6.39133e-05
6 *1497:B1 *1611:B1 0.000144582
7 *1498:B *412:12 0.000235658
8 *1611:A1 *1611:B1 4.78359e-05
9 *364:32 *1611:B1 0.000112201
10 *372:147 *412:12 5.74294e-05
*RES
1 *1610:Y *412:12 42.8428 
2 *412:12 *1611:B1 40.9682 
*END

*D_NET *413 0.00272123
*CONN
*I *1612:B2 I *D sg13cmos5l_a22oi_1
*I *1611:X O *D sg13cmos5l_a21o_1
*CAP
1 *1612:B2 0
2 *1611:X 0.000260588
3 *413:16 0.000437877
4 *413:10 0.000698466
5 *413:10 *1564:A2 0.000112695
6 *413:10 *660:77 7.61537e-05
7 *413:10 *660:83 0.00039668
8 *413:16 *655:32 0
9 *1497:B1 *413:10 0
10 *313:29 *413:16 0
11 *337:18 *413:10 0.000175699
12 *338:10 *413:10 0.000452246
13 *367:10 *413:10 0.000110829
*RES
1 *1611:X *413:10 43.914 
2 *413:10 *413:16 44.6453 
3 *413:16 *1612:B2 40 
*END

*D_NET *414 0.00313587
*CONN
*I *1614:A2 I *D sg13cmos5l_a21oi_1
*I *1613:Y O *D sg13cmos5l_xnor2_1
*CAP
1 *1614:A2 3.34444e-05
2 *1613:Y 0.000622301
3 *414:12 0.000655746
4 *414:12 *1619:B2 2.95963e-05
5 *414:12 *1813:RESET_B 0.000341119
6 *414:12 *561:49 0.000447598
7 *414:12 *586:36 0.000636978
8 *414:12 *689:18 8.0216e-05
9 *414:12 *689:24 0.000241133
10 *1614:A1 *1614:A2 4.77425e-05
*RES
1 *1613:Y *414:12 47.3851 
2 *414:12 *1614:A2 40.3193 
*END

*D_NET *415 0.00142923
*CONN
*I *1619:B1 I *D sg13cmos5l_a22oi_1
*I *1614:Y O *D sg13cmos5l_a21oi_1
*CAP
1 *1619:B1 0.000409339
2 *1614:Y 0.000409339
3 *1614:A1 *1619:B1 4.76053e-05
4 *1813:D *1619:B1 0.000435116
5 *81:14 *1619:B1 4.77425e-05
6 *81:24 *1619:B1 8.00842e-05
7 *97:16 *1619:B1 0
*RES
1 *1614:Y *1619:B1 43.914 
*END

*D_NET *416 0.00767134
*CONN
*I *1617:B2 I *D sg13cmos5l_a221oi_1
*I *1616:B I *D sg13cmos5l_nand2_1
*I *1615:Y O *D sg13cmos5l_xnor2_1
*CAP
1 *1617:B2 0.000108259
2 *1616:B 0
3 *1615:Y 0.000238236
4 *416:34 0.00103185
5 *416:20 0.00143104
6 *416:12 0.000529162
7 *1617:B2 *695:113 0.000153006
8 *416:12 *1618:B1 0
9 *416:20 *571:39 0.000407774
10 *416:34 *1616:A 0
11 *416:34 *447:8 0
12 *416:34 *544:21 0
13 *416:34 *573:65 0
14 *416:34 *654:156 0.000447868
15 *416:34 *672:22 0
16 *416:34 *673:82 0
17 *416:34 *677:36 0.000130618
18 *1496:B *416:20 0.0001292
19 *1496:B *416:34 0.000183415
20 *1615:A *416:12 0
21 *1617:B1 *1617:B2 1.54008e-05
22 *85:8 *416:34 0.000129383
23 *97:35 *416:12 0.000111658
24 *98:12 *416:12 1.54008e-05
25 *203:18 *416:34 0.00045176
26 *258:74 *416:34 0
27 *342:33 *416:34 0.000448723
28 *347:26 *416:34 8.0216e-05
29 *347:51 *416:34 0
30 *372:147 *416:20 0.000107201
31 *372:147 *416:34 0.000132021
32 *393:10 *416:34 0.00034349
33 *393:40 *416:34 0.00104566
34 *407:18 *416:12 0
*RES
1 *1615:Y *416:12 42.1321 
2 *416:12 *416:20 43.296 
3 *416:20 *416:34 33.8432 
4 *416:34 *1616:B 20 
5 *416:20 *1617:B2 41.133 
*END

*D_NET *417 0.00688478
*CONN
*I *1618:A2 I *D sg13cmos5l_a21o_1
*I *1616:Y O *D sg13cmos5l_nand2_1
*CAP
1 *1618:A2 0
2 *1616:Y 0.000132922
3 *417:14 0.000779548
4 *417:8 0.00091247
5 *417:14 *1618:B1 2.50034e-05
6 *417:14 *573:65 0
7 *417:14 *612:45 0
8 *417:14 *612:53 0.000612551
9 *417:14 *672:16 0.00215998
10 *417:14 *675:14 0.00120057
11 *312:51 *417:14 0.000397632
12 *341:10 *417:14 0.000664095
13 *347:51 *417:14 0
14 *407:18 *417:14 0
*RES
1 *1616:Y *417:8 40.9682 
2 *417:8 *417:14 34.1161 
3 *417:14 *1618:A2 20 
*END

*D_NET *418 0.0012272
*CONN
*I *1618:B1 I *D sg13cmos5l_a21o_1
*I *1617:Y O *D sg13cmos5l_a221oi_1
*CAP
1 *1618:B1 0.000454404
2 *1617:Y 0.000454404
3 *1617:B1 *1618:B1 1.54008e-05
4 *98:12 *1618:B1 0.000128597
5 *312:51 *1618:B1 3.7732e-05
6 *364:53 *1618:B1 3.15716e-05
7 *407:18 *1618:B1 8.00842e-05
8 *416:12 *1618:B1 0
9 *417:14 *1618:B1 2.50034e-05
*RES
1 *1617:Y *1618:B1 44.4084 
*END

*D_NET *419 0.00206013
*CONN
*I *1619:B2 I *D sg13cmos5l_a22oi_1
*I *1618:X O *D sg13cmos5l_a21o_1
*CAP
1 *1619:B2 0.000702276
2 *1618:X 0.000702276
3 *1619:B2 *586:36 0
4 *1619:B2 *619:101 0.000465812
5 *1619:B2 *635:88 0.000112426
6 *1603:A2 *1619:B2 0
7 *1615:A *1619:B2 0
8 *1615:B *1619:B2 0
9 *1813:D *1619:B2 4.77425e-05
10 *81:14 *1619:B2 0
11 *93:24 *1619:B2 0
12 *336:10 *1619:B2 0
13 *414:12 *1619:B2 2.95963e-05
*RES
1 *1618:X *1619:B2 46.7362 
*END

*D_NET *420 0.00677335
*CONN
*I *1627:B1 I *D sg13cmos5l_o21ai_1
*I *1620:Y O *D sg13cmos5l_nand2_1
*CAP
1 *1627:B1 0
2 *1620:Y 0.000484328
3 *420:20 9.87404e-05
4 *420:12 0.00205901
5 *420:8 0.0024446
6 *420:8 *1553:A 0
7 *420:8 *474:8 0.000394653
8 *420:8 *475:8 0
9 *420:8 *476:10 0.000288688
10 *420:8 *485:8 0.000448186
11 *420:8 *487:12 0
12 *420:8 *488:10 0.000182624
13 *420:8 *585:56 0
14 *420:8 *717:119 0
15 *420:12 *427:12 0
16 *420:12 *578:27 0
17 *420:12 *649:113 0.000277037
18 *420:12 *699:12 0
19 *420:12 *706:77 0
20 *420:20 *1627:A2 8.00842e-05
21 *420:20 *1652:A2 0
22 *420:20 *585:16 0
23 *59:8 *420:20 1.54008e-05
24 *365:75 *420:12 0
25 *372:100 *420:12 0
26 *372:115 *420:12 0
27 *397:25 *420:8 0
*RES
1 *1620:Y *420:8 46.5302 
2 *420:8 *420:12 39.7863 
3 *420:12 *420:20 40.8858 
4 *420:20 *1627:B1 20 
*END

*D_NET *421 0.00297153
*CONN
*I *1622:A2 I *D sg13cmos5l_o21ai_1
*I *1621:Y O *D sg13cmos5l_a21oi_1
*CAP
1 *1622:A2 5.67273e-05
2 *1621:Y 0.000685427
3 *421:10 0.000742155
4 *1622:A2 *1622:B1 1.54008e-05
5 *1622:A2 *1624:A1 0
6 *421:10 *425:10 0.000822677
7 *421:10 *711:10 0.000144729
8 *339:30 *421:10 0.000306438
9 *340:18 *421:10 0.000182579
10 *372:86 *1622:A2 1.54008e-05
*RES
1 *1621:Y *421:10 47.0967 
2 *421:10 *1622:A2 40.5356 
*END

*D_NET *422 0.000727254
*CONN
*I *1623:B1 I *D sg13cmos5l_o21ai_1
*I *1622:Y O *D sg13cmos5l_o21ai_1
*CAP
1 *1623:B1 0.000235446
2 *1622:Y 0.000235446
3 *1623:B1 *1622:B1 0.000240918
4 *1623:B1 *1624:A2 0
5 *1623:B1 *1626:B2 0
6 *1623:A2 *1623:B1 1.54446e-05
*RES
1 *1622:Y *1623:B1 42.266 
*END

*D_NET *423 0.000662856
*CONN
*I *1624:A2 I *D sg13cmos5l_o21ai_1
*I *1623:Y O *D sg13cmos5l_o21ai_1
*CAP
1 *1624:A2 0.000331428
2 *1623:Y 0.000331428
3 *1623:B1 *1624:A2 0
*RES
1 *1623:Y *1624:A2 42.9613 
*END

*D_NET *424 0.00122759
*CONN
*I *1627:A1 I *D sg13cmos5l_o21ai_1
*I *1624:Y O *D sg13cmos5l_o21ai_1
*CAP
1 *1627:A1 4.32164e-05
2 *1624:Y 0.000346737
3 *424:8 0.000389953
4 *1627:A1 *1627:A2 8.01938e-05
5 *424:8 *426:10 0
6 *2000:A *1627:A1 8.00842e-05
7 *340:18 *424:8 0.000287402
*RES
1 *1624:Y *424:8 42.8222 
2 *424:8 *1627:A1 40.5356 
*END

*D_NET *425 0.00453665
*CONN
*I *1626:B1 I *D sg13cmos5l_a221oi_1
*I *1625:X O *D sg13cmos5l_mux2_1
*CAP
1 *1626:B1 0.000261556
2 *1625:X 0.000511983
3 *425:10 0.000773539
4 *425:10 *1984:A 0
5 *425:10 *573:31 0
6 *1589:A1 *1626:B1 4.71556e-05
7 *1589:B1 *1626:B1 0.000176521
8 *1626:A1 *1626:B1 8.0216e-05
9 *1637:A *1626:B1 0.000144899
10 *80:36 *1626:B1 0.000305574
11 *340:18 *425:10 0.00141253
12 *421:10 *425:10 0.000822677
*RES
1 *1625:X *425:10 47.7147 
2 *425:10 *1626:B1 42.9149 
*END

*D_NET *426 0.00373282
*CONN
*I *1627:A2 I *D sg13cmos5l_o21ai_1
*I *1626:Y O *D sg13cmos5l_a221oi_1
*CAP
1 *1627:A2 9.82536e-05
2 *1626:Y 0.000576185
3 *426:10 0.000674439
4 *426:10 *1622:B1 0
5 *426:10 *1624:A1 0
6 *426:10 *1652:A2 0.00108641
7 *1627:A1 *1627:A2 8.01938e-05
8 *2000:A *1627:A2 1.51e-05
9 *59:8 *1627:A2 0
10 *93:24 *426:10 0
11 *340:18 *426:10 0.000769476
12 *372:86 *426:10 0.000208576
13 *392:12 *426:10 0.000144102
14 *420:20 *1627:A2 8.00842e-05
15 *424:8 *426:10 0
*RES
1 *1626:Y *426:10 47.7765 
2 *426:10 *1627:A2 40.9682 
*END

*D_NET *427 0.00462568
*CONN
*I *1641:B1 I *D sg13cmos5l_o21ai_1
*I *1628:Y O *D sg13cmos5l_nand2_1
*CAP
1 *1641:B1 0
2 *1628:Y 9.00274e-05
3 *427:18 5.74589e-05
4 *427:12 0.00157363
5 *427:8 0.00160619
6 *427:8 *578:21 0
7 *427:8 *649:87 0.000239301
8 *427:12 *544:31 0
9 *427:12 *608:16 0
10 *427:12 *608:28 0
11 *427:12 *695:60 0
12 *427:18 *1641:A2 1.54008e-05
13 *427:18 *585:16 0
14 *427:18 *706:91 0
15 *60:10 *427:18 1.54556e-05
16 *372:100 *427:12 0.000471605
17 *372:115 *427:12 0.00055661
18 *420:12 *427:12 0
*RES
1 *1628:Y *427:8 41.0918 
2 *427:8 *427:12 35.8929 
3 *427:12 *427:18 40.5356 
4 *427:18 *1641:B1 20 
*END

*D_NET *428 0.00530489
*CONN
*I *1658:A2 I *D sg13cmos5l_a21o_1
*I *1682:B_N I *D sg13cmos5l_nor2b_1
*I *1657:C I *D sg13cmos5l_nand3_1
*I *1631:A I *D sg13cmos5l_nor2b_1
*I *1643:B I *D sg13cmos5l_xor2_1
*I *1629:Y O *D sg13cmos5l_a21oi_1
*CAP
1 *1658:A2 0.000242785
2 *1682:B_N 0
3 *1657:C 0
4 *1631:A 0
5 *1643:B 0.000327733
6 *1629:Y 9.3864e-05
7 *428:51 0.000255583
8 *428:36 0.000726465
9 *428:25 0.000470882
10 *428:12 0.000421717
11 *428:10 0.000430634
12 *1643:B *1661:A1 0
13 *1643:B *1661:A2 0
14 *1643:B *455:14 0
15 *1643:B *706:89 0
16 *1658:A2 *585:31 0.00011254
17 *1658:A2 *612:53 0
18 *1658:A2 *654:10 0
19 *428:10 *1631:B_N 0
20 *428:10 *455:14 0
21 *428:12 *455:14 0
22 *428:12 *654:10 0
23 *428:36 *1526:A 0
24 *428:36 *1657:B 1.54008e-05
25 *428:36 *1659:A1 0
26 *428:36 *1850:A 0
27 *428:36 *454:17 0
28 *428:36 *455:14 0
29 *428:36 *706:89 0.000337693
30 *428:51 *1657:B 0.000128508
31 *428:51 *630:40 0.000185245
32 *428:51 *630:50 0.00012984
33 *428:51 *649:113 0.000236034
34 *1539:B *1643:B 0.000287624
35 *1539:B *1658:A2 0.000267531
36 *1539:B *428:12 0.00026842
37 *1629:A2 *1658:A2 1.54008e-05
38 *1629:B1 *1658:A2 0
39 *1629:B1 *428:10 1.54008e-05
40 *1629:B1 *428:36 0
41 *1644:A1 *1643:B 0
42 *1682:A *428:51 0
43 *334:16 *1658:A2 0
44 *334:16 *428:36 0
45 *334:16 *428:51 0.000144015
46 *334:26 *428:10 0
47 *346:14 *428:51 4.68099e-05
48 *372:32 *1643:B 0.000144764
49 *394:14 *428:51 0
*RES
1 *1629:Y *428:10 40.8858 
2 *428:10 *428:12 1.339 
3 *428:12 *1643:B 43.605 
4 *428:12 *428:25 20 
5 *428:25 *1631:A 20 
6 *428:25 *428:36 4.3272 
7 *428:36 *1657:C 20 
8 *428:36 *428:51 43.2754 
9 *428:51 *1682:B_N 20 
10 *428:10 *1658:A2 42.5905 
*END

*D_NET *429 0.00153437
*CONN
*I *1631:B_N I *D sg13cmos5l_nor2b_1
*I *1630:Y O *D sg13cmos5l_nand3_1
*CAP
1 *1631:B_N 0.000169065
2 *1630:Y 0.000259571
3 *429:8 0.000428636
4 *1631:B_N *1632:A2 0.000241165
5 *429:8 *610:35 0.000291999
6 *334:26 *1631:B_N 0
7 *334:26 *429:8 0
8 *372:49 *1631:B_N 0.000143932
9 *428:10 *1631:B_N 0
*RES
1 *1630:Y *429:8 42.3278 
2 *429:8 *1631:B_N 41.8334 
*END

*D_NET *430 0.000772796
*CONN
*I *1632:A2 I *D sg13cmos5l_o21ai_1
*I *1631:Y O *D sg13cmos5l_nor2b_1
*CAP
1 *1632:A2 0.000233858
2 *1631:Y 0.000233858
3 *1632:A2 *1632:B1 6.39133e-05
4 *1632:A2 *1850:A 0
5 *1632:A2 *706:89 0
6 *1631:B_N *1632:A2 0.000241165
7 *372:49 *1632:A2 0
*RES
1 *1631:Y *1632:A2 42.3999 
*END

*D_NET *431 0.00099325
*CONN
*I *1635:B1 I *D sg13cmos5l_o21ai_1
*I *1632:Y O *D sg13cmos5l_o21ai_1
*CAP
1 *1635:B1 5.6815e-05
2 *1632:Y 0.000216332
3 *431:10 0.000273147
4 *1635:B1 *433:18 1.54008e-05
5 *431:10 *706:89 0.000143932
6 *103:10 *431:10 0.000287624
7 *372:78 *431:10 0
*RES
1 *1632:Y *431:10 42.3072 
2 *431:10 *1635:B1 40.5356 
*END

*D_NET *432 0.00303105
*CONN
*I *1634:B_N I *D sg13cmos5l_nor2b_1
*I *1633:Y O *D sg13cmos5l_o21ai_1
*CAP
1 *1634:B_N 8.17653e-05
2 *1633:Y 0.000508945
3 *432:14 0.00059071
4 *1634:B_N *1938:A 0.000111839
5 *432:14 *1271:B 0
6 *432:14 *1275:B 0.000177203
7 *432:14 *1633:B1 8.00954e-05
8 *432:14 *727:16 0.000767787
9 *1269:B1 *432:14 0
10 *107:8 *432:14 0.000712706
*RES
1 *1633:Y *432:14 46.9319 
2 *432:14 *1634:B_N 40.7519 
*END

*D_NET *433 0.00605478
*CONN
*I *1635:A2 I *D sg13cmos5l_o21ai_1
*I *1634:Y O *D sg13cmos5l_nor2b_1
*CAP
1 *1635:A2 0
2 *1634:Y 8.45336e-05
3 *433:18 0.00124629
4 *433:8 0.00133083
5 *433:8 *1938:A 0.00011159
6 *433:8 *603:14 0
7 *433:18 *1279:A1 0
8 *433:18 *585:16 0.000144181
9 *433:18 *603:14 0
10 *433:18 *650:52 0
11 *433:18 *672:72 0.000287672
12 *433:18 *681:8 0.000110829
13 *433:18 *695:51 0.00103187
14 *433:18 *706:114 0.00113785
15 *433:18 *727:16 0.000553748
16 *1273:A2 *433:18 0
17 *1635:B1 *433:18 1.54008e-05
18 *339:14 *433:18 0
*RES
1 *1634:Y *433:8 40.7519 
2 *433:8 *433:18 35.3373 
3 *433:18 *1635:A2 20 
*END

*D_NET *434 0.000657297
*CONN
*I *1636:A2 I *D sg13cmos5l_o21ai_1
*I *1635:Y O *D sg13cmos5l_o21ai_1
*CAP
1 *1636:A2 0
2 *1635:Y 6.66086e-05
3 *434:8 6.66086e-05
4 *434:8 *650:46 0
5 *434:8 *695:66 0.00023616
6 *103:10 *434:8 0.00028792
*RES
1 *1635:Y *434:8 41.339 
2 *434:8 *1636:A2 40 
*END

*D_NET *435 0.00104405
*CONN
*I *1641:A1 I *D sg13cmos5l_o21ai_1
*I *1636:Y O *D sg13cmos5l_o21ai_1
*CAP
1 *1641:A1 0.000232971
2 *1636:Y 0.000232971
3 *1641:A1 *1636:B1 0.000134601
4 *1641:A1 *1641:A2 0.000121666
5 *1641:A1 *585:16 0
6 *1641:A1 *706:91 0.000209413
7 *372:78 *1641:A1 0.000112426
*RES
1 *1636:Y *1641:A1 42.7192 
*END

*D_NET *436 0.000524442
*CONN
*I *1638:B I *D sg13cmos5l_and2_1
*I *1637:Y O *D sg13cmos5l_nand3_1
*CAP
1 *1638:B 4.76786e-05
2 *1637:Y 8.56253e-05
3 *436:8 0.000133304
4 *1626:C1 *1638:B 4.77425e-05
5 *392:24 *1638:B 8.00842e-05
6 *392:24 *436:8 0.000130007
*RES
1 *1637:Y *436:8 40.8446 
2 *436:8 *1638:B 40.5356 
*END

*D_NET *437 0.00232373
*CONN
*I *1640:A2 I *D sg13cmos5l_a221oi_1
*I *1638:X O *D sg13cmos5l_and2_1
*CAP
1 *1640:A2 0
2 *1638:X 0.000223159
3 *437:22 0.000365794
4 *437:14 0.000588953
5 *437:22 *1235:A 0
6 *437:22 *575:25 0.00012816
7 *437:22 *575:31 0
8 *437:22 *650:36 0
9 *437:22 *650:46 0.000481449
10 *437:22 *653:68 0.000215874
11 *1626:C1 *437:14 0.000117582
12 *1639:A *437:14 0
13 *82:8 *437:14 0.000180577
14 *344:14 *437:22 2.21849e-05
*RES
1 *1638:X *437:14 42.2969 
2 *437:14 *437:22 44.5114 
3 *437:22 *1640:A2 40 
*END

*D_NET *438 0.000585845
*CONN
*I *1640:B1 I *D sg13cmos5l_a221oi_1
*I *1639:Y O *D sg13cmos5l_xnor2_1
*CAP
1 *1640:B1 0.000261365
2 *1639:Y 0.000261365
3 *1640:B1 *1259:A 4.77153e-05
4 *1640:B1 *1270:B 0
5 *1640:B1 *673:61 1.54008e-05
6 *1629:A2 *1640:B1 0
*RES
1 *1639:Y *1640:B1 42.2254 
*END

*D_NET *439 0.00132204
*CONN
*I *1641:A2 I *D sg13cmos5l_o21ai_1
*I *1640:Y O *D sg13cmos5l_a221oi_1
*CAP
1 *1641:A2 0.000170036
2 *1640:Y 0.000260819
3 *439:10 0.000430854
4 *439:10 *608:34 1.54008e-05
5 *439:10 *653:60 0.00028577
6 *1641:A1 *1641:A2 0.000121666
7 *372:78 *439:10 2.20966e-05
8 *427:18 *1641:A2 1.54008e-05
*RES
1 *1640:Y *439:10 41.8746 
2 *439:10 *1641:A2 41.6377 
*END

*D_NET *440 0.0079941
*CONN
*I *1652:B1 I *D sg13cmos5l_o21ai_1
*I *1642:Y O *D sg13cmos5l_nand2_1
*CAP
1 *1652:B1 0
2 *1642:Y 0
3 *440:16 0.00109692
4 *440:6 0.00109692
5 *440:16 *1652:A2 0.000175721
6 *440:16 *1766:CLK 0
7 *440:16 *1932:A 0.000185233
8 *440:16 *617:16 0.00311118
9 *440:16 *669:64 0
10 *440:16 *681:8 0
11 *440:16 *706:91 0
12 *440:16 *706:101 0
13 *1279:B1 *440:16 0
14 *1816:D *440:16 0.000175667
15 *99:22 *440:16 0.00215246
*RES
1 *1642:Y *440:6 40 
2 *440:6 *440:16 38.4885 
3 *440:16 *1652:B1 20 
*END

*D_NET *441 0.000379632
*CONN
*I *1644:A2 I *D sg13cmos5l_o21ai_1
*I *1643:X O *D sg13cmos5l_xor2_1
*CAP
1 *1644:A2 0.000166715
2 *1643:X 0.000166715
3 *1644:A2 *1644:B1 1.54008e-05
4 *1644:A2 *1646:B1 1.54008e-05
5 *1635:A1 *1644:A2 0
6 *1644:A1 *1644:A2 1.54008e-05
*RES
1 *1643:X *1644:A2 41.6274 
*END

*D_NET *442 0.000566437
*CONN
*I *1646:B1 I *D sg13cmos5l_o21ai_1
*I *1644:Y O *D sg13cmos5l_o21ai_1
*CAP
1 *1646:B1 0.000244171
2 *1644:Y 0.000244171
3 *1646:B1 *1643:A 0
4 *1646:B1 *1646:A2 1.54008e-05
5 *1644:A2 *1646:B1 1.54008e-05
6 *110:14 *1646:B1 4.72942e-05
*RES
1 *1644:Y *1646:B1 42.2042 
*END

*D_NET *443 0.000889175
*CONN
*I *1646:A2 I *D sg13cmos5l_o21ai_1
*I *1645:Y O *D sg13cmos5l_xnor2_1
*CAP
1 *1646:A2 3.25769e-05
2 *1645:Y 0.000169627
3 *443:8 0.000202204
4 *443:8 *444:10 0.000341206
5 *443:8 *653:60 0
6 *1646:B1 *1646:A2 1.54008e-05
7 *103:10 *443:8 0
8 *103:29 *443:8 0.00012816
9 *339:8 *443:8 0
*RES
1 *1645:Y *443:8 42.0806 
2 *443:8 *1646:A2 40.3193 
*END

*D_NET *444 0.00222248
*CONN
*I *1647:A2 I *D sg13cmos5l_o21ai_1
*I *1646:Y O *D sg13cmos5l_o21ai_1
*CAP
1 *1647:A2 0.00025884
2 *1646:Y 0.000283918
3 *444:10 0.000542758
4 *1647:A2 *695:51 1.54008e-05
5 *1647:A2 *706:114 1.54008e-05
6 *444:10 *653:60 0
7 *1273:B1 *444:10 0.00039332
8 *103:10 *444:10 0.000371639
9 *105:8 *444:10 0
10 *443:8 *444:10 0.000341206
*RES
1 *1646:Y *444:10 44.1303 
2 *444:10 *1647:A2 42.0497 
*END

*D_NET *445 0.00264047
*CONN
*I *1652:A1 I *D sg13cmos5l_o21ai_1
*I *1647:Y O *D sg13cmos5l_o21ai_1
*CAP
1 *1652:A1 5.20024e-05
2 *1647:Y 0.0006474
3 *445:8 0.000699402
4 *1652:A1 *1652:A2 8.00842e-05
5 *445:8 *1279:A1 0.000926424
6 *445:8 *585:16 0.000235153
7 *445:8 *695:51 0
*RES
1 *1647:Y *445:8 46.283 
2 *445:8 *1652:A1 40.5356 
*END

*D_NET *446 0.000889085
*CONN
*I *1649:B_N I *D sg13cmos5l_nor2b_1
*I *1648:Y O *D sg13cmos5l_nand3_1
*CAP
1 *1649:B_N 0.000364516
2 *1648:Y 0.000364516
3 *1649:B_N *573:65 0
4 *1590:B1 *1649:B_N 0.0001122
5 *1648:B *1649:B_N 0
6 *1648:C *1649:B_N 4.78524e-05
7 *341:10 *1649:B_N 0
*RES
1 *1648:Y *1649:B_N 43.4299 
*END

*D_NET *447 0.0017135
*CONN
*I *1651:A2 I *D sg13cmos5l_a221oi_1
*I *1649:Y O *D sg13cmos5l_nor2b_1
*CAP
1 *1651:A2 0
2 *1649:Y 8.86191e-05
3 *447:16 0.000307206
4 *447:8 0.000395825
5 *447:16 *574:14 0
6 *447:16 *612:45 0.000395999
7 *447:16 *672:16 0
8 *447:16 *677:53 0
9 *342:33 *447:8 0
10 *347:51 *447:8 0.000235913
11 *392:35 *447:16 0.000289933
12 *416:34 *447:8 0
*RES
1 *1649:Y *447:8 41.0918 
2 *447:8 *447:16 43.8239 
3 *447:16 *1651:A2 40 
*END

*D_NET *448 0.0005846
*CONN
*I *1651:B1 I *D sg13cmos5l_a221oi_1
*I *1650:X O *D sg13cmos5l_xor2_1
*CAP
1 *1651:B1 0.000212429
2 *1650:X 0.000212429
3 *1651:B1 *673:43 9.67706e-05
4 *1651:B1 *673:49 1.54556e-05
5 *1650:B *1651:B1 4.75166e-05
*RES
1 *1650:X *1651:B1 41.9982 
*END

*D_NET *449 0.00583035
*CONN
*I *1652:A2 I *D sg13cmos5l_o21ai_1
*I *1651:Y O *D sg13cmos5l_a221oi_1
*CAP
1 *1652:A2 0.000665424
2 *1651:Y 0.000131428
3 *449:16 0.00121652
4 *449:10 0.000682527
5 *1652:A2 *585:16 0
6 *1652:A2 *695:43 0
7 *1652:A2 *695:51 0.000182626
8 *1652:A2 *699:8 0.000820175
9 *1652:A2 *706:114 0.000236682
10 *449:10 *673:49 0
11 *449:16 *608:57 0
12 *1626:C1 *449:10 0.000144025
13 *1651:C1 *449:10 0
14 *1652:A1 *1652:A2 8.00842e-05
15 *60:10 *1652:A2 0
16 *93:24 *1652:A2 0
17 *372:78 *449:16 3.26842e-05
18 *378:22 *449:16 0.000376047
19 *392:24 *449:10 0
20 *420:20 *1652:A2 0
21 *426:10 *1652:A2 0.00108641
22 *440:16 *1652:A2 0.000175721
*RES
1 *1651:Y *449:10 41.3184 
2 *449:10 *449:16 45.7268 
3 *449:16 *1652:A2 49.1979 
*END

*D_NET *450 0.00225664
*CONN
*I *1664:B1 I *D sg13cmos5l_o21ai_1
*I *1653:Y O *D sg13cmos5l_nand2_1
*CAP
1 *1664:B1 0.00044631
2 *1653:Y 0.000412773
3 *450:14 0.000859083
4 *1664:B1 *1664:A1 0
5 *1664:B1 *1670:B 0
6 *1664:B1 *1671:A 4.78195e-05
7 *1664:B1 *1674:B1 0
8 *1664:B1 *1675:A2 0
9 *1664:B1 *454:17 0
10 *450:14 *1531:A 4.77425e-05
11 *450:14 *1653:A 4.7803e-05
12 *450:14 *630:50 0.000234718
13 *450:14 *649:79 1.54008e-05
14 *450:14 *654:115 0.000129592
15 *450:14 *706:77 0
16 *1673:A *450:14 0
17 *62:10 *1664:B1 1.54008e-05
18 *83:14 *450:14 0
19 *83:16 *450:14 0
20 *334:16 *450:14 0
*RES
1 *1653:Y *450:14 44.12 
2 *450:14 *1664:B1 43.7801 
*END

*D_NET *451 0.000879834
*CONN
*I *1662:A2 I *D sg13cmos5l_a21o_1
*I *1654:Y O *D sg13cmos5l_xnor2_1
*CAP
1 *1662:A2 0.000231204
2 *1654:Y 0.000231204
3 *1662:A2 *1566:A 0.000240459
4 *1662:A2 *630:87 0.000176966
*RES
1 *1654:Y *1662:A2 42.6316 
*END

*D_NET *452 0.00451944
*CONN
*I *1656:B I *D sg13cmos5l_nor2_1
*I *1655:Y O *D sg13cmos5l_xnor2_1
*CAP
1 *1656:B 0.000323806
2 *1655:Y 0.000688454
3 *452:8 0.00101226
4 *1656:B *1527:B 0.000114986
5 *1656:B *1527:C 7.9046e-05
6 *1656:B *1527:A 4.79124e-05
7 *1656:B *1543:A 0
8 *1656:B *650:12 0
9 *452:8 *674:20 0.00151226
10 *452:8 *756:26 0
11 *1545:A2 *1656:B 8.01938e-05
12 *1654:B *452:8 0
13 *330:8 *452:8 0.000660522
14 *350:28 *452:8 0
15 *370:19 *452:8 0
*RES
1 *1655:Y *452:8 49.0022 
2 *452:8 *1656:B 43.2857 
*END

*D_NET *453 0.00384975
*CONN
*I *1662:B1 I *D sg13cmos5l_a21o_1
*I *1656:Y O *D sg13cmos5l_nor2_1
*CAP
1 *1662:B1 5.50307e-05
2 *1656:Y 0.000573272
3 *453:8 0.000628303
4 *1662:B1 *1566:A 0
5 *1662:B1 *673:82 8.01612e-05
6 *453:8 *459:8 0.00172505
7 *453:8 *630:12 0
8 *453:8 *635:14 0.000288331
9 *329:8 *453:8 0.000499603
10 *331:8 *453:8 0
11 *338:82 *453:8 0
*RES
1 *1656:Y *453:8 48.755 
2 *453:8 *1662:B1 40.5356 
*END

*D_NET *454 0.00292971
*CONN
*I *1670:B I *D sg13cmos5l_nor2_1
*I *1671:B I *D sg13cmos5l_xnor2_1
*I *1659:A1 I *D sg13cmos5l_a21o_1
*I *1657:Y O *D sg13cmos5l_nand3_1
*CAP
1 *1670:B 0.000233076
2 *1671:B 0
3 *1659:A1 0.000375469
4 *1657:Y 3.4291e-05
5 *454:17 0.000477338
6 *454:6 0.000654021
7 *1659:A1 *1659:A2 2.54237e-05
8 *1659:A1 *1664:A1 0
9 *1659:A1 *706:89 0
10 *1670:B *1675:A2 0
11 *1670:B *1685:A1 0
12 *1670:B *630:50 0.000337594
13 *454:17 *1657:A 4.77425e-05
14 *454:17 *1664:A1 0
15 *454:17 *1671:A 4.78195e-05
16 *454:17 *630:50 0.000176559
17 *1664:B1 *1670:B 0
18 *1664:B1 *454:17 0
19 *62:10 *1659:A1 2.18115e-05
20 *62:10 *454:17 8.01609e-05
21 *372:28 *1659:A1 0.000403006
22 *372:32 *1659:A1 1.54008e-05
23 *428:36 *1659:A1 0
24 *428:36 *454:17 0
*RES
1 *1657:Y *454:6 20.3502 
2 *454:6 *1659:A1 23.6977 
3 *454:6 *454:17 2.3855 
4 *454:17 *1671:B 20 
5 *454:17 *1670:B 22.266 
*END

*D_NET *455 0.000979403
*CONN
*I *1659:A2 I *D sg13cmos5l_a21o_1
*I *1658:X O *D sg13cmos5l_a21o_1
*CAP
1 *1659:A2 1.44159e-05
2 *1658:X 0.000450019
3 *455:14 0.000464434
4 *1659:A2 *706:89 2.51105e-05
5 *455:14 *1850:A 0
6 *455:14 *654:10 0
7 *455:14 *654:18 0
8 *1643:B *455:14 0
9 *1659:A1 *1659:A2 2.54237e-05
10 *334:16 *455:14 0
11 *428:10 *455:14 0
12 *428:12 *455:14 0
13 *428:36 *455:14 0
*RES
1 *1658:X *455:14 43.6565 
2 *455:14 *1659:A2 40.1699 
*END

*D_NET *456 0.000297948
*CONN
*I *1661:A2 I *D sg13cmos5l_a221oi_1
*I *1659:X O *D sg13cmos5l_a21o_1
*CAP
1 *1661:A2 0.000148974
2 *1659:X 0.000148974
3 *1661:A2 *1661:A1 0
4 *1643:B *1661:A2 0
*RES
1 *1659:X *1661:A2 41.4317 
*END

*D_NET *457 0.000993003
*CONN
*I *1661:B1 I *D sg13cmos5l_a221oi_1
*I *1660:X O *D sg13cmos5l_xor2_1
*CAP
1 *1661:B1 2.89506e-05
2 *1660:X 0.00021419
3 *457:8 0.00024314
4 *1661:B1 *1661:A1 1.54008e-05
5 *457:8 *560:8 0
6 *457:8 *576:8 0
7 *457:8 *633:12 0
8 *457:8 *695:74 0.000184058
9 *1280:C *1661:B1 4.77425e-05
10 *1539:B *457:8 0.000129681
11 *1661:B2 *457:8 0.00012984
*RES
1 *1660:X *457:8 42.575 
2 *457:8 *1661:B1 40.3193 
*END

*D_NET *458 0.00134568
*CONN
*I *1664:A1 I *D sg13cmos5l_o21ai_1
*I *1661:Y O *D sg13cmos5l_a221oi_1
*CAP
1 *1664:A1 0.000342359
2 *1661:Y 0.000178406
3 *458:10 0.000520765
4 *1664:A1 *1674:B1 1.54556e-05
5 *458:10 *654:18 0.000288692
6 *458:10 *695:74 0
7 *1280:C *1664:A1 0
8 *1280:C *458:10 0
9 *1539:B *458:10 0
10 *1659:A1 *1664:A1 0
11 *1664:B1 *1664:A1 0
12 *62:10 *1664:A1 0
13 *372:28 *1664:A1 0
14 *454:17 *1664:A1 0
*RES
1 *1661:Y *458:10 41.8746 
2 *458:10 *1664:A1 43.1312 
*END

*D_NET *459 0.00414011
*CONN
*I *1663:A2 I *D sg13cmos5l_o21ai_1
*I *1662:X O *D sg13cmos5l_a21o_1
*CAP
1 *1663:A2 8.66534e-05
2 *1662:X 0.000758816
3 *459:8 0.000845469
4 *1663:A2 *576:33 0
5 *1663:A2 *706:136 1.54556e-05
6 *459:8 *1544:A 0.000287752
7 *459:8 *630:12 0.000238452
8 *459:8 *756:36 0.000182463
9 *348:22 *459:8 0
10 *453:8 *459:8 0.00172505
*RES
1 *1662:X *459:8 49.4966 
2 *459:8 *1663:A2 40.7519 
*END

*D_NET *460 0.00151724
*CONN
*I *1664:A2 I *D sg13cmos5l_o21ai_1
*I *1663:Y O *D sg13cmos5l_o21ai_1
*CAP
1 *1664:A2 0
2 *1663:Y 0.000401706
3 *460:8 0.000401706
4 *460:8 *652:20 0.00023726
5 *460:8 *652:24 0
6 *460:8 *706:136 7.68089e-05
7 *329:8 *460:8 0.000399758
8 *338:82 *460:8 0
*RES
1 *1663:Y *460:8 44.3054 
2 *460:8 *1664:A2 40 
*END

*D_NET *461 0.00392526
*CONN
*I *1676:B1 I *D sg13cmos5l_o21ai_1
*I *1665:Y O *D sg13cmos5l_nand2_1
*CAP
1 *1676:B1 0
2 *1665:Y 0.000449371
3 *461:8 0.000449371
4 *461:8 *616:10 0
5 *461:8 *652:20 0.0011947
6 *46:8 *461:8 0
7 *111:12 *461:8 0.00183182
*RES
1 *1665:Y *461:8 48.5078 
2 *461:8 *1676:B1 40 
*END

*D_NET *462 0.00243417
*CONN
*I *1667:B I *D sg13cmos5l_and2_1
*I *1666:Y O *D sg13cmos5l_nand3_1
*CAP
1 *1667:B 4.37077e-05
2 *1666:Y 0.000501583
3 *462:12 0.00054529
4 *1667:B *673:16 8.00842e-05
5 *462:12 *1520:B 0
6 *462:12 *647:74 0
7 *462:12 *673:16 7.51285e-05
8 *1594:A2 *1667:B 8.00842e-05
9 *325:14 *462:12 0.00110829
10 *354:16 *462:12 0
*RES
1 *1666:Y *462:12 45.9637 
2 *462:12 *1667:B 40.5356 
*END

*D_NET *463 0.000632952
*CONN
*I *1669:A2 I *D sg13cmos5l_a221oi_1
*I *1667:X O *D sg13cmos5l_and2_1
*CAP
1 *1669:A2 0.000173305
2 *1667:X 0.000173305
3 *1669:A2 *619:25 0.000143171
4 *1669:A2 *673:16 0.000143171
5 *1668:A *1669:A2 0
*RES
1 *1667:X *1669:A2 41.8308 
*END

*D_NET *464 0.0012936
*CONN
*I *1669:B1 I *D sg13cmos5l_a221oi_1
*I *1668:X O *D sg13cmos5l_xor2_1
*CAP
1 *1669:B1 0.000276346
2 *1668:X 0.000276346
3 *1669:B1 *673:20 0.000402797
4 *1669:B1 *674:14 0
5 *1668:B *1669:B1 0.000338113
*RES
1 *1668:X *1669:B1 43.296 
*END

*D_NET *465 0.00582685
*CONN
*I *1676:A1 I *D sg13cmos5l_o21ai_1
*I *1669:Y O *D sg13cmos5l_a221oi_1
*CAP
1 *1676:A1 0
2 *1669:Y 3.01158e-05
3 *465:14 0.00159023
4 *465:8 0.00162034
5 *465:14 *1676:A2 0.000469067
6 *465:14 *471:8 0
7 *465:14 *574:22 0
8 *465:14 *575:31 0.000129368
9 *465:14 *608:10 0
10 *465:14 *649:51 1.54556e-05
11 *465:14 *649:62 0
12 *465:14 *653:10 0
13 *465:14 *653:14 0
14 *465:14 *756:26 0.000503039
15 *465:14 *756:36 0
16 *1523:A *465:14 0.000372891
17 *1673:A *465:14 0.000719775
18 *83:16 *465:14 0.000376569
19 *342:12 *465:14 0
*RES
1 *1669:Y *465:8 40.3193 
2 *465:8 *465:14 37.0774 
3 *465:14 *1676:A1 20 
*END

*D_NET *466 0.000747814
*CONN
*I *1683:B I *D sg13cmos5l_nor2_1
*I *1670:Y O *D sg13cmos5l_nor2_1
*CAP
1 *1683:B 0.00020568
2 *1670:Y 0.00020568
3 *1683:B *1684:A2 0.00011253
4 *1683:B *1685:A1 0.000111876
5 *1683:B *648:80 0.000112048
6 *1683:B *649:79 0
*RES
1 *1670:Y *1683:B 42.2454 
*END

*D_NET *467 0.00107737
*CONN
*I *1672:A2 I *D sg13cmos5l_o21ai_1
*I *1671:Y O *D sg13cmos5l_xnor2_1
*CAP
1 *1672:A2 7.28016e-05
2 *1671:Y 9.98137e-05
3 *467:10 0.000172615
4 *1672:A2 *1672:B1 8.01938e-05
5 *467:10 *608:10 7.65627e-05
6 *467:10 *608:16 0.00012984
7 *467:10 *630:50 8.0216e-05
8 *467:10 *649:79 8.00842e-05
9 *467:10 *653:10 0.000237505
10 *334:16 *1672:A2 4.77425e-05
*RES
1 *1671:Y *467:10 41.6274 
2 *467:10 *1672:A2 40.7519 
*END

*D_NET *468 0.00143649
*CONN
*I *1674:B1 I *D sg13cmos5l_o21ai_1
*I *1672:Y O *D sg13cmos5l_o21ai_1
*CAP
1 *1674:B1 0.000250068
2 *1672:Y 0.000301418
3 *468:10 0.000551486
4 *1674:B1 *1674:A2 0
5 *1674:B1 *1675:A2 0.0002415
6 *468:10 *1567:C 0
7 *468:10 *577:21 0
8 *468:10 *608:16 7.65602e-05
9 *468:10 *653:10 0
10 *1664:B1 *1674:B1 0
11 *1664:A1 *1674:B1 1.54556e-05
*RES
1 *1672:Y *468:10 42.6471 
2 *468:10 *1674:B1 42.6471 
*END

*D_NET *469 0.000431895
*CONN
*I *1674:A2 I *D sg13cmos5l_o21ai_1
*I *1673:Y O *D sg13cmos5l_xnor2_1
*CAP
1 *1674:A2 0.000159728
2 *1673:Y 0.000159728
3 *1674:A2 *1675:A2 0
4 *1674:B1 *1674:A2 0
5 *1674:A1 *1674:A2 0.00011244
6 *381:12 *1674:A2 0
*RES
1 *1673:Y *1674:A2 41.4008 
*END

*D_NET *470 0.0011839
*CONN
*I *1675:A2 I *D sg13cmos5l_o21ai_1
*I *1674:Y O *D sg13cmos5l_o21ai_1
*CAP
1 *1675:A2 0.000463496
2 *1674:Y 0.000463496
3 *1675:A2 *1675:B1 1.54118e-05
4 *1675:A2 *1685:B1 0
5 *1664:B1 *1675:A2 0
6 *1670:B *1675:A2 0
7 *1673:A *1675:A2 0
8 *1674:B1 *1675:A2 0.0002415
9 *1674:A2 *1675:A2 0
10 *381:12 *1675:A2 0
11 *381:21 *1675:A2 0
*RES
1 *1674:Y *1675:A2 44.5114 
*END

*D_NET *471 0.00204189
*CONN
*I *1676:A2 I *D sg13cmos5l_o21ai_1
*I *1675:Y O *D sg13cmos5l_o21ai_1
*CAP
1 *1676:A2 0.000367329
2 *1675:Y 0.000411382
3 *471:8 0.000778711
4 *1676:A2 *1689:B1 0
5 *1676:A2 *1818:CLK 0
6 *1676:A2 *719:12 0
7 *471:8 *480:8 0
8 *35:22 *1676:A2 1.54008e-05
9 *342:12 *1676:A2 0
10 *465:14 *1676:A2 0.000469067
11 *465:14 *471:8 0
*RES
1 *1675:Y *471:8 43.5638 
2 *471:8 *1676:A2 43.9964 
*END

*D_NET *472 0.00443373
*CONN
*I *1689:B1 I *D sg13cmos5l_o21ai_1
*I *1677:Y O *D sg13cmos5l_nand2_1
*CAP
1 *1689:B1 0.000868126
2 *1677:Y 0.000584845
3 *472:8 0.00145297
4 *1689:B1 *1686:B 0.000208868
5 *1689:B1 *1688:B 0
6 *1689:B1 *1689:A2 1.54556e-05
7 *1689:B1 *1697:A 0
8 *1689:B1 *1820:CLK 0
9 *1689:B1 *483:10 0
10 *1689:B1 *578:10 0
11 *1689:B1 *670:32 0
12 *1689:B1 *717:30 0
13 *1689:B1 *719:12 0
14 *472:8 *605:8 0
15 *472:8 *717:30 0.00130346
16 *472:8 *751:10 0
17 *1289:B *472:8 0
18 *1676:A2 *1689:B1 0
19 *35:22 *1689:B1 0
20 *63:8 *472:8 0
*RES
1 *1677:Y *472:8 48.0134 
2 *472:8 *1689:B1 48.9966 
*END

*D_NET *473 0.000894882
*CONN
*I *1679:B_N I *D sg13cmos5l_nor2b_1
*I *1678:Y O *D sg13cmos5l_nand3_1
*CAP
1 *1679:B_N 0.000407344
2 *1678:Y 0.000407344
3 *1680:A *1679:B_N 8.0194e-05
4 *311:53 *1679:B_N 0
5 *365:10 *1679:B_N 0
6 *397:10 *1679:B_N 0
*RES
1 *1678:Y *1679:B_N 43.6977 
*END

*D_NET *474 0.00117654
*CONN
*I *1681:A2 I *D sg13cmos5l_a221oi_1
*I *1679:Y O *D sg13cmos5l_nor2b_1
*CAP
1 *1681:A2 0.000149481
2 *1679:Y 0.000136775
3 *474:8 0.000286256
4 *1681:A2 *476:10 0
5 *1681:A2 *578:44 0.000209374
6 *474:8 *475:8 0
7 *474:8 *585:56 0
8 *420:8 *474:8 0.000394653
*RES
1 *1679:Y *474:8 41.8334 
2 *474:8 *1681:A2 41.5991 
*END

*D_NET *475 0.000976668
*CONN
*I *1681:B1 I *D sg13cmos5l_a221oi_1
*I *1680:Y O *D sg13cmos5l_xnor2_1
*CAP
1 *1681:B1 5.88648e-05
2 *1680:Y 0.000163982
3 *475:8 0.000222846
4 *1681:B1 *1681:B2 0
5 *1681:B1 *476:10 1.54556e-05
6 *1681:B1 *673:113 1.54008e-05
7 *373:24 *475:8 0.000500119
8 *420:8 *475:8 0
9 *474:8 *475:8 0
*RES
1 *1680:Y *475:8 42.3278 
2 *475:8 *1681:B1 40.5356 
*END

*D_NET *476 0.00300605
*CONN
*I *1689:A1 I *D sg13cmos5l_o21ai_1
*I *1681:Y O *D sg13cmos5l_a221oi_1
*CAP
1 *1689:A1 4.76676e-05
2 *1681:Y 0.00098811
3 *476:10 0.00103578
4 *1689:A1 *1689:A2 8.03692e-05
5 *1689:A1 *1697:A 0
6 *476:10 *1681:B2 8.00995e-05
7 *476:10 *477:33 0.000340288
8 *476:10 *488:10 0
9 *476:10 *491:10 0
10 *476:10 *492:10 0.000129595
11 *476:10 *579:8 0
12 *476:10 *597:22 0
13 *476:10 *646:59 0
14 *1681:B1 *476:10 1.54556e-05
15 *1681:A2 *476:10 0
16 *65:8 *476:10 0
17 *372:115 *476:10 0
18 *373:24 *476:10 0
19 *382:28 *1689:A1 0
20 *420:8 *476:10 0.000288688
*RES
1 *1681:Y *476:10 49.9704 
2 *476:10 *1689:A1 40.5356 
*END

*D_NET *477 0.00920074
*CONN
*I *1702:B I *D sg13cmos5l_and2_1
*I *1703:A2 I *D sg13cmos5l_a21oi_1
*I *1695:B I *D sg13cmos5l_xor2_1
*I *1684:A1 I *D sg13cmos5l_o21ai_1
*I *1682:Y O *D sg13cmos5l_nor2b_1
*CAP
1 *1702:B 0.000292126
2 *1703:A2 2.9989e-05
3 *1695:B 0
4 *1684:A1 0
5 *1682:Y 0.000498196
6 *477:63 0.000689289
7 *477:46 0.000992555
8 *477:33 0.00109028
9 *477:14 0.000617445
10 *477:10 0.000590761
11 *1702:B *1708:A 0.000112689
12 *1702:B *495:8 0
13 *1702:B *520:14 0
14 *1702:B *632:29 0.000184858
15 *1703:A2 *645:16 1.54008e-05
16 *1703:A2 *645:22 4.78028e-05
17 *1703:A2 *717:136 4.77425e-05
18 *477:10 *1866:A 0
19 *477:10 *574:22 4.7803e-05
20 *477:10 *608:10 0.000176405
21 *477:10 *649:87 0
22 *477:14 *1653:A 0
23 *477:14 *1684:A2 0.000103564
24 *477:14 *649:79 7.93987e-05
25 *477:33 *1653:A 0
26 *477:33 *1700:A1 0.000112569
27 *477:33 *489:10 4.78853e-05
28 *477:33 *544:43 0
29 *477:33 *649:79 0
30 *477:46 *1700:B1 0
31 *477:46 *1700:A1 1.54556e-05
32 *477:46 *1700:A2 0
33 *477:46 *489:10 6.48039e-05
34 *477:46 *503:10 0
35 *477:46 *597:16 0.000506478
36 *477:46 *646:38 2.25909e-05
37 *477:46 *684:42 0
38 *477:63 *503:10 0.000450155
39 *477:63 *597:10 0
40 *477:63 *597:16 0
41 *477:63 *684:30 0
42 *1523:A *477:10 0
43 *1557:B *1702:B 0
44 *1684:B1 *477:33 0.000338415
45 *1702:A *1702:B 0.000255798
46 *83:14 *477:10 0
47 *342:18 *477:10 0.000450725
48 *365:64 *477:63 0.000236596
49 *372:115 *477:33 0.00034048
50 *373:37 *477:33 0.000144063
51 *373:45 *477:46 7.68089e-05
52 *408:35 *477:63 0.000181325
53 *476:10 *477:33 0.000340288
*RES
1 *1682:Y *477:10 44.9955 
2 *477:10 *477:14 20.9682 
3 *477:14 *1684:A1 20 
4 *477:14 *477:33 46.1388 
5 *477:33 *1695:B 20 
6 *477:33 *477:46 26.2109 
7 *477:46 *1703:A2 40.3193 
8 *477:46 *477:63 45.15 
9 *477:63 *1702:B 42.9355 
*END

*D_NET *478 0.000779428
*CONN
*I *1684:A2 I *D sg13cmos5l_o21ai_1
*I *1683:Y O *D sg13cmos5l_nor2_1
*CAP
1 *1684:A2 0.000278003
2 *1683:Y 0.000278003
3 *1684:A2 *648:80 0
4 *1683:B *1684:A2 0.00011253
5 *1684:B1 *1684:A2 7.32634e-06
6 *477:14 *1684:A2 0.000103564
*RES
1 *1683:Y *1684:A2 43.0771 
*END

*D_NET *479 0.000412634
*CONN
*I *1687:A2 I *D sg13cmos5l_a221oi_1
*I *1684:Y O *D sg13cmos5l_o21ai_1
*CAP
1 *1687:A2 0
2 *1684:Y 0.000168753
3 *479:8 0.000168753
4 *479:8 *648:61 0
5 *479:8 *717:16 0
6 *479:8 *717:76 7.51285e-05
7 *342:18 *479:8 0
*RES
1 *1684:Y *479:8 41.6815 
2 *479:8 *1687:A2 40 
*END

*D_NET *480 0.00234587
*CONN
*I *1686:B I *D sg13cmos5l_nand2_1
*I *1685:Y O *D sg13cmos5l_o21ai_1
*CAP
1 *1686:B 0.000141018
2 *1685:Y 0.000478243
3 *480:8 0.000619262
4 *480:8 *482:8 0
5 *480:8 *629:16 0
6 *480:8 *648:61 0
7 *480:8 *706:77 0.000236901
8 *1689:B1 *1686:B 0.000208868
9 *35:22 *1686:B 0
10 *342:18 *480:8 0.000661577
11 *471:8 *480:8 0
*RES
1 *1685:Y *480:8 45.2942 
2 *480:8 *1686:B 41.4008 
*END

*D_NET *481 0.00147402
*CONN
*I *1687:B1 I *D sg13cmos5l_a221oi_1
*I *1686:Y O *D sg13cmos5l_nand2_1
*CAP
1 *1687:B1 0
2 *1686:Y 0.00038428
3 *481:8 0.00038428
4 *481:8 *482:8 0
5 *481:8 *631:14 0.00018128
6 *481:8 *648:53 0.000394981
7 *481:8 *717:16 0
8 *382:10 *481:8 0
9 *410:22 *481:8 0.000129197
*RES
1 *1686:Y *481:8 44.3054 
2 *481:8 *1687:B1 40 
*END

*D_NET *482 0.00311223
*CONN
*I *1688:B I *D sg13cmos5l_or2_1
*I *1687:Y O *D sg13cmos5l_a221oi_1
*CAP
1 *1688:B 0.000187667
2 *1687:Y 0.000493414
3 *482:8 0.000681081
4 *1688:B *483:10 0.000144184
5 *1688:B *717:16 0.000209098
6 *1688:B *717:30 0
7 *482:8 *629:16 0
8 *482:8 *648:53 0.000820482
9 *482:8 *648:61 0.000501507
10 *1689:B1 *1688:B 0
11 *410:22 *482:8 7.47964e-05
12 *480:8 *482:8 0
13 *481:8 *482:8 0
*RES
1 *1687:Y *482:8 46.0358 
2 *482:8 *1688:B 42.1836 
*END

*D_NET *483 0.00270716
*CONN
*I *1689:A2 I *D sg13cmos5l_o21ai_1
*I *1688:X O *D sg13cmos5l_or2_1
*CAP
1 *1689:A2 0.000293143
2 *1688:X 0.000397509
3 *483:10 0.000690651
4 *1689:A2 *1579:A 0
5 *1689:A2 *684:58 0
6 *483:10 *1771:CLK 0
7 *483:10 *578:10 0.000128247
8 *483:10 *647:42 0
9 *483:10 *717:16 0.000554579
10 *1688:B *483:10 0.000144184
11 *1689:B1 *1689:A2 1.54556e-05
12 *1689:B1 *483:10 0
13 *1689:A1 *1689:A2 8.03692e-05
14 *35:22 *1689:A2 0.000403022
15 *382:10 *1689:A2 0
16 *382:28 *1689:A2 0
*RES
1 *1688:X *483:10 44.841 
2 *483:10 *1689:A2 43.1312 
*END

*D_NET *484 0.00349776
*CONN
*I *1700:B1 I *D sg13cmos5l_o21ai_1
*I *1690:Y O *D sg13cmos5l_nand2_1
*CAP
1 *1700:B1 0.000567907
2 *1690:Y 6.84375e-05
3 *484:16 0.00093479
4 *484:8 0.00043532
5 *1700:B1 *1685:B1 0
6 *1700:B1 *1687:A1 6.31433e-05
7 *1700:B1 *1700:A1 0.000224153
8 *1700:B1 *1700:A2 1.5412e-05
9 *1700:B1 *648:80 0
10 *1700:B1 *717:105 0.00017635
11 *484:8 *645:16 0.000110829
12 *484:8 *717:136 0.000110829
13 *484:16 *579:8 0.000396011
14 *484:16 *717:136 0
15 *1684:B1 *1700:B1 0
16 *373:37 *1700:B1 0
17 *410:16 *484:16 0.000394577
18 *477:46 *1700:B1 0
*RES
1 *1690:Y *484:8 40.7519 
2 *484:8 *484:16 44.9646 
3 *484:16 *1700:B1 45.8042 
*END

*D_NET *485 0.00174497
*CONN
*I *1692:B I *D sg13cmos5l_nand2b_1
*I *1691:Y O *D sg13cmos5l_o21ai_1
*CAP
1 *1692:B 0.000241413
2 *1691:Y 0.000118551
3 *485:8 0.000359964
4 *1692:B *1694:A2 0
5 *1692:B *578:44 0
6 *1708:B *1692:B 1.54556e-05
7 *311:53 *1692:B 0.00027331
8 *397:25 *485:8 0.000288087
9 *398:10 *1692:B 0
10 *420:8 *485:8 0.000448186
*RES
1 *1691:Y *485:8 42.0806 
2 *485:8 *1692:B 42.266 
*END

*D_NET *486 0.000834643
*CONN
*I *1694:A2 I *D sg13cmos5l_a221oi_1
*I *1692:Y O *D sg13cmos5l_nand2b_1
*CAP
1 *1694:A2 0.000417321
2 *1692:Y 0.000417321
3 *1694:A2 *578:44 0
4 *1692:B *1694:A2 0
5 *1694:A1 *1694:A2 0
6 *1708:B *1694:A2 0
*RES
1 *1692:Y *1694:A2 43.6977 
*END

*D_NET *487 0.00105296
*CONN
*I *1694:B1 I *D sg13cmos5l_a221oi_1
*I *1693:X O *D sg13cmos5l_xor2_1
*CAP
1 *1694:B1 5.31263e-05
2 *1693:X 0.000225705
3 *487:12 0.000278831
4 *1694:B1 *488:10 1.54008e-05
5 *487:12 *544:43 0
6 *487:12 *717:119 0.000287256
7 *1693:B *487:12 0.000112426
8 *1694:A1 *1694:B1 8.0216e-05
9 *420:8 *487:12 0
*RES
1 *1693:X *487:12 42.4411 
2 *487:12 *1694:B1 40.5356 
*END

*D_NET *488 0.00230269
*CONN
*I *1700:A1 I *D sg13cmos5l_o21ai_1
*I *1694:Y O *D sg13cmos5l_a221oi_1
*CAP
1 *1700:A1 0.000239304
2 *1694:Y 0.000468665
3 *488:10 0.00070797
4 *1700:A1 *1700:A2 0.000112662
5 *488:10 *1681:B2 8.00842e-05
6 *488:10 *597:78 1.54008e-05
7 *488:10 *645:37 0.000128406
8 *1694:B1 *488:10 1.54008e-05
9 *1700:B1 *1700:A1 0.000224153
10 *410:16 *488:10 0
11 *420:8 *488:10 0.000182624
12 *476:10 *488:10 0
13 *477:33 *1700:A1 0.000112569
14 *477:46 *1700:A1 1.54556e-05
*RES
1 *1694:Y *488:10 44.3466 
2 *488:10 *1700:A1 42.5338 
*END

*D_NET *489 0.000668162
*CONN
*I *1696:A2 I *D sg13cmos5l_o21ai_1
*I *1695:X O *D sg13cmos5l_xor2_1
*CAP
1 *1696:A2 7.39295e-05
2 *1695:X 0.000151757
3 *489:10 0.000225687
4 *1696:A2 *1687:A1 0
5 *1696:A2 *1696:B1 2.31012e-06
6 *1696:A2 *1699:A2 2.14475e-05
7 *1696:A2 *1700:A2 0
8 *489:10 *1700:A2 8.0342e-05
9 *410:16 *489:10 0
10 *477:33 *489:10 4.78853e-05
11 *477:46 *489:10 6.48039e-05
*RES
1 *1695:X *489:10 41.5965 
2 *489:10 *1696:A2 40.7776 
*END

*D_NET *490 0.000552239
*CONN
*I *1698:B1 I *D sg13cmos5l_o21ai_1
*I *1696:Y O *D sg13cmos5l_o21ai_1
*CAP
1 *1698:B1 0.00012873
2 *1696:Y 0.00012873
3 *1698:B1 *1687:A1 0
4 *1698:B1 *1698:A2 0.000134688
5 *1698:B1 *1699:A2 4.77425e-05
6 *1698:B1 *492:10 0.000112349
7 *1698:B1 *684:58 0
*RES
1 *1696:Y *1698:B1 41.4008 
*END

*D_NET *491 0.000905196
*CONN
*I *1698:A2 I *D sg13cmos5l_o21ai_1
*I *1697:X O *D sg13cmos5l_xor2_1
*CAP
1 *1698:A2 9.11351e-05
2 *1697:X 0.00013997
3 *491:10 0.000231105
4 *1698:A2 *684:58 0
5 *491:10 *684:58 0.000111878
6 *1698:B1 *1698:A2 0.000134688
7 *1698:A1 *1698:A2 1.52762e-05
8 *65:8 *491:10 0.000181145
9 *382:28 *491:10 0
10 *476:10 *491:10 0
*RES
1 *1697:X *491:10 41.5965 
2 *491:10 *1698:A2 41.0042 
*END

*D_NET *492 0.00165011
*CONN
*I *1699:A2 I *D sg13cmos5l_o21ai_1
*I *1698:Y O *D sg13cmos5l_o21ai_1
*CAP
1 *1699:A2 0.000377457
2 *1698:Y 0.000106934
3 *492:10 0.000484391
4 *1699:A2 *1687:A1 0
5 *1699:A2 *1696:B1 0
6 *1699:A2 *1699:A1 0.000112585
7 *1699:A2 *1700:A2 0
8 *1699:A2 *684:58 0.000145256
9 *492:10 *1687:A1 0.000112349
10 *1696:A1 *1699:A2 0
11 *1696:A2 *1699:A2 2.14475e-05
12 *1698:B1 *1699:A2 4.77425e-05
13 *1698:B1 *492:10 0.000112349
14 *65:8 *492:10 0
15 *476:10 *492:10 0.000129595
*RES
1 *1698:Y *492:10 41.3493 
2 *492:10 *1699:A2 43.8625 
*END

*D_NET *493 0.00117971
*CONN
*I *1700:A2 I *D sg13cmos5l_o21ai_1
*I *1699:Y O *D sg13cmos5l_o21ai_1
*CAP
1 *1700:A2 0.000485645
2 *1699:Y 0.000485645
3 *1700:A2 *1687:A1 0
4 *1696:A2 *1700:A2 0
5 *1699:A2 *1700:A2 0
6 *1700:B1 *1700:A2 1.5412e-05
7 *1700:A1 *1700:A2 0.000112662
8 *477:46 *1700:A2 0
9 *489:10 *1700:A2 8.0342e-05
*RES
1 *1699:Y *1700:A2 44.4496 
*END

*D_NET *494 0.00604355
*CONN
*I *1711:B1 I *D sg13cmos5l_o21ai_1
*I *1701:Y O *D sg13cmos5l_nand2_1
*CAP
1 *1711:B1 0
2 *1701:Y 0.000288149
3 *494:20 0.000352035
4 *494:14 0.0012343
5 *494:8 0.00117042
6 *494:8 *1298:A 4.78356e-05
7 *494:8 *1701:A 0.000337786
8 *494:8 *586:145 1.54556e-05
9 *494:14 *1297:A 0
10 *494:14 *1773:RESET_B 0
11 *494:14 *1928:A 0
12 *494:14 *644:14 7.62515e-05
13 *494:14 *644:47 0.00139163
14 *494:14 *670:38 1.54556e-05
15 *494:14 *670:42 0
16 *494:20 *562:8 0.000930162
17 *494:20 *579:8 0.000184065
18 *494:20 *646:59 0
19 *35:14 *494:14 0
20 *37:12 *494:14 0
21 *66:12 *494:14 0
22 *125:6 *494:8 0
23 *127:8 *494:8 0
*RES
1 *1701:Y *494:8 42.6986 
2 *494:8 *494:14 30.9283 
3 *494:14 *494:20 45.2942 
4 *494:20 *1711:B1 20 
*END

*D_NET *495 0.00347571
*CONN
*I *1725:A2 I *D sg13cmos5l_a21oi_1
*I *1713:B I *D sg13cmos5l_xnor2_1
*I *1704:A1 I *D sg13cmos5l_o21ai_1
*I *1702:X O *D sg13cmos5l_and2_1
*CAP
1 *1725:A2 0.000130955
2 *1713:B 0
3 *1704:A1 0.000110159
4 *1702:X 3.21503e-05
5 *495:24 0.000602561
6 *495:10 0.000662947
7 *495:8 0.00033365
8 *1704:A1 *1703:B1 0.00017616
9 *1704:A1 *1704:A2 1.54008e-05
10 *1704:A1 *1706:B1 0
11 *1725:A2 *643:12 0.00012816
12 *495:8 *632:29 4.78356e-05
13 *495:10 *642:68 0
14 *495:10 *684:104 0.000106392
15 *495:24 *505:8 0.000128563
16 *495:24 *508:14 0.000406916
17 *495:24 *509:18 2.25909e-05
18 *495:24 *569:14 0
19 *495:24 *632:29 0
20 *495:24 *642:68 0
21 *495:24 *644:87 0
22 *495:24 *684:36 0.00034265
23 *495:24 *684:104 0.000181827
24 *495:24 *706:54 0
25 *1580:B *1704:A1 4.6793e-05
26 *1702:B *495:8 0
*RES
1 *1702:X *495:8 40.3193 
2 *495:8 *495:10 1.5862 
3 *495:10 *495:24 46.0461 
4 *495:24 *1704:A1 41.1845 
5 *495:10 *1713:B 40 
6 *495:8 *1725:A2 41.339 
*END

*D_NET *496 0.000587879
*CONN
*I *1704:A2 I *D sg13cmos5l_o21ai_1
*I *1703:Y O *D sg13cmos5l_a21oi_1
*CAP
1 *1704:A2 0.000185877
2 *1703:Y 0.000185877
3 *1704:A2 *1703:B1 0
4 *1704:A2 *645:22 3.77432e-05
5 *1704:B1 *1704:A2 8.00842e-05
6 *1704:A1 *1704:A2 1.54008e-05
7 *373:37 *1704:A2 8.28967e-05
*RES
1 *1703:Y *1704:A2 42.0291 
*END

*D_NET *497 0.0002732
*CONN
*I *1706:A2 I *D sg13cmos5l_a221oi_1
*I *1704:Y O *D sg13cmos5l_o21ai_1
*CAP
1 *1706:A2 0.000122538
2 *1704:Y 0.000122538
3 *1706:A2 *1706:B1 0
4 *1706:A2 *597:56 1.27224e-05
5 *1704:B1 *1706:A2 1.54008e-05
*RES
1 *1704:Y *1706:A2 41.4703 
*END

*D_NET *498 0.00185849
*CONN
*I *1706:B1 I *D sg13cmos5l_a221oi_1
*I *1705:X O *D sg13cmos5l_xor2_1
*CAP
1 *1706:B1 0.0001773
2 *1705:X 0.000294943
3 *498:12 0.000472242
4 *1706:B1 *1718:A 4.74263e-05
5 *1706:B1 *597:56 1.54008e-05
6 *1706:B1 *684:40 0.000207854
7 *498:12 *1582:C 0.000177241
8 *498:12 *1718:A 0
9 *498:12 *644:64 2.2291e-05
10 *498:12 *644:77 0
11 *498:12 *684:36 7.51285e-05
12 *1704:A1 *1706:B1 0
13 *1705:B *498:12 0.000368663
14 *1706:A2 *1706:B1 0
*RES
1 *1705:X *498:12 43.3681 
2 *498:12 *1706:B1 41.6171 
*END

*D_NET *499 0.00234173
*CONN
*I *1707:B I *D sg13cmos5l_or2_1
*I *1706:Y O *D sg13cmos5l_a221oi_1
*CAP
1 *1707:B 0.000447647
2 *1706:Y 0.000238658
3 *499:8 0.000686305
4 *1707:B *1707:A 4.77425e-05
5 *1707:B *1715:A 0
6 *1707:B *1820:CLK 0
7 *499:8 *644:47 0
8 *1580:B *499:8 0.000267014
9 *1715:B *1707:B 0
10 *1715:B *499:8 0.000342659
11 *66:12 *499:8 0
12 *382:34 *499:8 0.000129595
13 *385:29 *499:8 0.00018211
*RES
1 *1706:Y *499:8 43.5638 
2 *499:8 *1707:B 44.1303 
*END

*D_NET *500 0.00361846
*CONN
*I *1711:A1 I *D sg13cmos5l_o21ai_1
*I *1707:X O *D sg13cmos5l_or2_1
*CAP
1 *1711:A1 0.000908106
2 *1707:X 7.41593e-05
3 *500:8 0.000982266
4 *1711:A1 *1582:A 0
5 *1711:A1 *1582:B 0
6 *1711:A1 *1582:C 0.000249618
7 *1711:A1 *1705:A 0.000149432
8 *1711:A1 *1711:A2 1.54556e-05
9 *1711:A1 *684:42 8.02379e-05
10 *1711:A1 *684:58 7.53965e-05
11 *500:8 *1308:A1 0.000235971
12 *500:8 *632:14 0.000343797
13 *1582:D *1711:A1 7.97665e-05
14 *1715:B *1711:A1 0.000103168
15 *66:12 *1711:A1 0.000176509
16 *382:34 *1711:A1 0.000144582
*RES
1 *1707:X *500:8 41.5862 
2 *500:8 *1711:A1 49.8262 
*END

*D_NET *501 0.000270631
*CONN
*I *1710:A2 I *D sg13cmos5l_a221oi_1
*I *1708:X O *D sg13cmos5l_xor2_1
*CAP
1 *1710:A2 0.000135316
2 *1708:X 0.000135316
3 *1710:A2 *1708:A 0
4 *1708:B *1710:A2 0
*RES
1 *1708:X *1710:A2 41.2592 
*END

*D_NET *502 0.000631862
*CONN
*I *1710:B1 I *D sg13cmos5l_a221oi_1
*I *1709:Y O *D sg13cmos5l_xnor2_1
*CAP
1 *1710:B1 0.000244297
2 *1709:Y 0.000244297
3 *1710:B1 *1708:A 0
4 *1710:B1 *503:10 1.54008e-05
5 *1710:B1 *642:54 0.000112412
6 *1710:B1 *645:66 0
7 *1694:A1 *1710:B1 1.54556e-05
*RES
1 *1709:Y *1710:B1 42.0497 
*END

*D_NET *503 0.00344768
*CONN
*I *1711:A2 I *D sg13cmos5l_o21ai_1
*I *1710:Y O *D sg13cmos5l_a221oi_1
*CAP
1 *1711:A2 0.000220243
2 *1710:Y 0.000547551
3 *503:10 0.000767794
4 *1711:A2 *1582:A 0.00011231
5 *1711:A2 *1706:C1 6.46834e-05
6 *1711:A2 *684:42 0.00011235
7 *503:10 *1710:B2 8.0128e-05
8 *503:10 *646:38 0
9 *1694:A1 *503:10 0
10 *1710:B1 *503:10 1.54008e-05
11 *1711:A1 *1711:A2 1.54556e-05
12 *66:12 *1711:A2 0
13 *311:30 *503:10 0.000985043
14 *385:29 *503:10 0
15 *410:56 *503:10 7.65627e-05
16 *477:46 *503:10 0
17 *477:63 *503:10 0.000450155
*RES
1 *1710:Y *503:10 46.8186 
2 *503:10 *1711:A2 42.2866 
*END

*D_NET *504 0.000889988
*CONN
*I *1724:B1 I *D sg13cmos5l_a21o_1
*I *1712:Y O *D sg13cmos5l_nor2_1
*CAP
1 *1724:B1 0.000389545
2 *1712:Y 0.000389545
3 *1724:B1 *1723:B 0
4 *1724:B1 *1724:A2 0
5 *1724:B1 *1724:A1 1.54008e-05
6 *1724:B1 *563:32 0
7 *1724:B1 *570:18 0
8 *1724:B1 *671:59 8.00951e-05
9 *1724:B1 *706:36 1.54008e-05
10 *1712:A *1724:B1 0
11 *1822:D *1724:B1 0
*RES
1 *1712:Y *1724:B1 44.1715 
*END

*D_NET *505 0.00148087
*CONN
*I *1714:A2 I *D sg13cmos5l_a21oi_1
*I *1713:Y O *D sg13cmos5l_xnor2_1
*CAP
1 *1714:A2 2.84522e-05
2 *1713:Y 0.000141203
3 *505:8 0.000169655
4 *1714:A2 *1718:B 0
5 *1714:A2 *706:48 4.77425e-05
6 *505:8 *508:8 0.000501591
7 *505:8 *509:18 0.00044826
8 *505:8 *632:29 0
9 *373:51 *1714:A2 1.54008e-05
10 *495:24 *505:8 0.000128563
*RES
1 *1713:Y *505:8 42.8222 
2 *505:8 *1714:A2 40.3193 
*END

*D_NET *506 0.000249784
*CONN
*I *1718:B I *D sg13cmos5l_nor3_1
*I *1714:Y O *D sg13cmos5l_a21oi_1
*CAP
1 *1718:B 0.000124892
2 *1714:Y 0.000124892
3 *1718:B *1718:A 0
4 *1718:B *643:86 0
5 *1714:A2 *1718:B 0
6 *1714:B1 *1718:B 0
7 *1716:A2 *1718:B 0
*RES
1 *1714:Y *1718:B 41.3802 
*END

*D_NET *507 0.000249626
*CONN
*I *1716:B1 I *D sg13cmos5l_a21oi_1
*I *1715:X O *D sg13cmos5l_and2_1
*CAP
1 *1716:B1 0.000100903
2 *1715:X 0.000100903
3 *1716:B1 *1308:A2 0
4 *1716:B1 *1582:C 4.78195e-05
*RES
1 *1715:X *1716:B1 40.9167 
*END

*D_NET *508 0.00455968
*CONN
*I *1717:B I *D sg13cmos5l_nor2_1
*I *1716:Y O *D sg13cmos5l_a21oi_1
*CAP
1 *1717:B 8.35137e-05
2 *1716:Y 0.000253488
3 *508:14 0.000375169
4 *508:8 0.000545143
5 *1717:B *509:18 0.000112413
6 *1717:B *717:136 0.00014445
7 *508:8 *632:14 0.00119328
8 *508:8 *643:67 0.000501875
9 *508:14 *684:30 8.26303e-05
10 *508:14 *684:104 0.000359209
11 *495:24 *508:14 0.000406916
12 *505:8 *508:8 0.000501591
*RES
1 *1716:Y *508:8 45.5414 
2 *508:8 *508:14 43.5638 
3 *508:14 *1717:B 40.9682 
*END

*D_NET *509 0.00242908
*CONN
*I *1718:C I *D sg13cmos5l_nor3_1
*I *1717:Y O *D sg13cmos5l_nor2_1
*CAP
1 *1718:C 0
2 *1717:Y 0.000763097
3 *509:18 0.000763097
4 *509:18 *1958:A 0
5 *509:18 *642:54 0
6 *509:18 *643:67 0.000181608
7 *509:18 *706:48 7.65602e-05
8 *509:18 *717:136 6.1449e-05
9 *1556:B *509:18 0
10 *1693:B *509:18 0
11 *1717:B *509:18 0.000112413
12 *495:24 *509:18 2.25909e-05
13 *505:8 *509:18 0.00044826
*RES
1 *1717:Y *509:18 47.8183 
2 *509:18 *1718:C 40 
*END

*D_NET *510 0.000669072
*CONN
*I *1719:B I *D sg13cmos5l_nor2_1
*I *1718:Y O *D sg13cmos5l_nor3_1
*CAP
1 *1719:B 0.000334536
2 *1718:Y 0.000334536
3 *1719:B *511:10 0
4 *1719:B *643:67 0
5 *1716:A2 *1719:B 0
*RES
1 *1718:Y *1719:B 43.0282 
*END

*D_NET *511 0.00251843
*CONN
*I *1724:A1 I *D sg13cmos5l_a21o_1
*I *1719:Y O *D sg13cmos5l_nor2_1
*CAP
1 *1724:A1 0.000130001
2 *1719:Y 0.000557951
3 *511:10 0.000687952
4 *1724:A1 *684:104 0
5 *511:10 *632:14 0
6 *511:10 *642:68 0.000769714
7 *511:10 *643:86 1.51e-05
8 *511:10 *643:107 0
9 *1719:B *511:10 0
10 *1724:B1 *1724:A1 1.54008e-05
11 *84:10 *1724:A1 0
12 *84:10 *511:10 0.000342315
*RES
1 *1719:Y *511:10 46.077 
2 *511:10 *1724:A1 40.8149 
*END

*D_NET *512 0.00102447
*CONN
*I *1722:B1 I *D sg13cmos5l_a22oi_1
*I *1720:Y O *D sg13cmos5l_o21ai_1
*CAP
1 *1722:B1 0.000453842
2 *1720:Y 0.000453842
3 *1722:B1 *1721:B2 0
4 *1722:B1 *514:10 3.15716e-05
5 *1597:A *1722:B1 0
6 *1720:A2 *1722:B1 0
7 *1721:A1 *1722:B1 0
8 *311:100 *1722:B1 4.77154e-05
9 *400:14 *1722:B1 3.74976e-05
*RES
1 *1720:Y *1722:B1 44.7895 
*END

*D_NET *513 0.000635595
*CONN
*I *1722:B2 I *D sg13cmos5l_a22oi_1
*I *1721:Y O *D sg13cmos5l_a22oi_1
*CAP
1 *1722:B2 0.000195333
2 *1721:Y 0.000195333
3 *1722:B2 *1721:B2 0.000133305
4 *1722:B2 *1722:A1 0
5 *1722:B2 *594:16 0
6 *400:14 *1722:B2 0.000111624
*RES
1 *1721:Y *1722:B2 41.9622 
*END

*D_NET *514 0.00151674
*CONN
*I *1723:B I *D sg13cmos5l_nand2_1
*I *1722:Y O *D sg13cmos5l_a22oi_1
*CAP
1 *1723:B 8.23534e-05
2 *1722:Y 0.00034856
3 *514:10 0.000430913
4 *1723:B *1724:A2 4.77537e-05
5 *514:10 *519:10 0.000341367
6 *514:10 *643:55 0.000234224
7 *1722:B1 *514:10 3.15716e-05
8 *1724:B1 *1723:B 0
*RES
1 *1722:Y *514:10 43.4968 
2 *514:10 *1723:B 40.7519 
*END

*D_NET *515 0.00035912
*CONN
*I *1724:A2 I *D sg13cmos5l_a21o_1
*I *1723:Y O *D sg13cmos5l_nand2_1
*CAP
1 *1724:A2 0.000155683
2 *1723:Y 0.000155683
3 *1723:B *1724:A2 4.77537e-05
4 *1724:B1 *1724:A2 0
*RES
1 *1723:Y *1724:A2 41.5244 
*END

*D_NET *516 0.00317494
*CONN
*I *1726:B I *D sg13cmos5l_nor2_1
*I *1725:Y O *D sg13cmos5l_a21oi_1
*CAP
1 *1726:B 6.11049e-05
2 *1725:Y 0.000485828
3 *516:18 0.000546933
4 *1726:B *517:12 4.77425e-05
5 *516:18 *520:14 0.000222355
6 *516:18 *520:20 0.000821193
7 *516:18 *570:55 1.54008e-05
8 *1557:B *516:18 8.00842e-05
9 *1702:A *516:18 0.000181279
10 *1721:A2 *516:18 3.06804e-05
11 *322:8 *516:18 0.000287672
12 *322:36 *516:18 0.000394663
13 *358:38 *516:18 0
*RES
1 *1725:Y *516:18 47.0143 
2 *516:18 *1726:B 40.5356 
*END

*D_NET *517 0.0037856
*CONN
*I *1727:A0 I *D sg13cmos5l_mux2_1
*I *1726:Y O *D sg13cmos5l_nor2_1
*CAP
1 *1727:A0 0.000604474
2 *1726:Y 0.00040009
3 *517:12 0.00100456
4 *517:12 *1558:A 0.000106064
5 *517:12 *1865:A 0.000128952
6 *517:12 *619:10 0.000713418
7 *517:12 *643:20 7.51285e-05
8 *1726:B *517:12 4.77425e-05
9 *1727:A1 *1727:A0 0.000144745
10 *1728:A0 *1727:A0 0
11 *1728:A1 *1727:A0 0.00014463
12 *1914:A *1727:A0 1.54008e-05
13 *311:66 *517:12 4.78192e-05
14 *321:39 *1727:A0 0.00017628
15 *322:36 *517:12 0
16 *385:29 *1727:A0 0.000176293
*RES
1 *1726:Y *517:12 44.8822 
2 *517:12 *1727:A0 45.7783 
*END

*D_NET *518 0.000740424
*CONN
*I *1730:A2 I *D sg13cmos5l_a22oi_1
*I *1727:X O *D sg13cmos5l_mux2_1
*CAP
1 *1730:A2 0.000247122
2 *1727:X 0.000247122
3 *1730:A2 *563:22 0.00017634
4 *1730:B2 *1730:A2 4.77425e-05
5 *1926:A *1730:A2 2.20968e-05
*RES
1 *1727:X *1730:A2 42.2145 
*END

*D_NET *519 0.00385591
*CONN
*I *1729:B I *D sg13cmos5l_nand2_1
*I *1728:X O *D sg13cmos5l_mux2_1
*CAP
1 *1729:B 0.000124729
2 *1728:X 0.000893481
3 *519:10 0.00101821
4 *519:10 *594:69 0.000396251
5 *51:25 *519:10 0.000659725
6 *311:100 *519:10 0.000181192
7 *314:29 *519:10 0
8 *321:39 *519:10 0.000240957
9 *514:10 *519:10 0.000341367
*RES
1 *1728:X *519:10 49.7541 
2 *519:10 *1729:B 40.9682 
*END

*D_NET *520 0.00614157
*CONN
*I *1730:B1 I *D sg13cmos5l_a22oi_1
*I *1729:Y O *D sg13cmos5l_nand2_1
*CAP
1 *1730:B1 0
2 *1729:Y 0.000432027
3 *520:20 0.00146968
4 *520:14 0.00190171
5 *520:14 *1722:A1 0
6 *520:14 *570:55 0
7 *520:14 *643:12 0.000208615
8 *520:20 *563:22 0
9 *1558:B *520:20 0
10 *1702:A *520:14 0.000245963
11 *1702:A *520:20 0
12 *1702:B *520:14 0
13 *314:14 *520:20 0.000305088
14 *314:23 *520:20 3.23417e-05
15 *322:36 *520:20 0
16 *358:38 *520:14 0
17 *386:8 *520:20 0.000502587
18 *516:18 *520:14 0.000222355
19 *516:18 *520:20 0.000821193
*RES
1 *1729:Y *520:14 44.3672 
2 *520:14 *520:20 32.9986 
3 *520:20 *1730:B1 20 
*END

*D_NET *521 0.0119668
*CONN
*I *1753:A1 I *D sg13cmos5l_o21ai_1
*I *1756:A1 I *D sg13cmos5l_a21oi_1
*I *1749:A1 I *D sg13cmos5l_o21ai_1
*I *1735:B I *D sg13cmos5l_nor3_1
*I *1744:A1 I *D sg13cmos5l_o21ai_1
*I *1740:A1 I *D sg13cmos5l_o21ai_1
*I *1731:Y O *D sg13cmos5l_nand3b_1
*CAP
1 *1753:A1 0.000287456
2 *1756:A1 0
3 *1749:A1 0
4 *1735:B 5.98045e-05
5 *1744:A1 0.00059206
6 *1740:A1 0.000138247
7 *1731:Y 4.59616e-05
8 *521:36 0.00155129
9 *521:30 0.00128388
10 *521:26 0.000896842
11 *521:14 0.00108803
12 *521:8 0.000927703
13 *1735:B *524:10 1.54008e-05
14 *1735:B *720:14 0
15 *1740:A1 *1529:B1 0
16 *1740:A1 *1740:A2 0.000208824
17 *1744:A1 *1739:B 0.000370795
18 *1744:A1 *1744:A2 1.54118e-05
19 *1744:A1 *1827:D 0
20 *1744:A1 *526:12 0
21 *1744:A1 *527:8 7.51542e-05
22 *1744:A1 *636:33 0
23 *1744:A1 *755:10 0.000208725
24 *1753:A1 *1751:A_N 0.000176474
25 *1753:A1 *1753:A2 0.000176474
26 *1753:A1 *563:98 0
27 *1753:A1 *663:79 0.000562305
28 *1753:A1 *712:35 0
29 *521:8 *595:37 0
30 *521:8 *663:79 4.70962e-05
31 *521:14 *1751:A_N 0
32 *521:14 *1755:A2 0.000144661
33 *521:14 *1756:B1 0
34 *521:14 *540:10 0
35 *521:14 *563:98 0
36 *521:14 *708:10 0
37 *521:26 *1746:A1 0.000112399
38 *521:26 *1746:A2 0
39 *521:26 *1747:A 0
40 *521:26 *1747:B 0
41 *521:26 *1748:B 0
42 *521:26 *1756:B1 0
43 *521:26 *524:34 1.54008e-05
44 *521:26 *676:10 0
45 *521:26 *677:68 0.000241467
46 *521:26 *705:36 8.00842e-05
47 *521:30 *1749:A2 0.000241089
48 *521:30 *524:8 0
49 *521:30 *524:10 0
50 *521:30 *524:34 0
51 *521:36 *1564:A2 0
52 *521:36 *526:12 0
53 *521:36 *636:33 0
54 *1498:B *521:36 0.000822615
55 *1569:C *521:30 0
56 *1737:B *521:36 0.000112517
57 *1824:D *521:36 0
58 *1834:A *1744:A1 0
59 *4:38 *1744:A1 0
60 *52:14 *1740:A1 0
61 *70:10 *1744:A1 0
62 *74:10 *521:14 0.000176007
63 *202:67 *521:36 4.78521e-05
64 *301:8 *521:36 0.000717055
65 *308:72 *521:8 0
66 *332:8 *1744:A1 0
67 *364:32 *521:8 7.95529e-05
68 *372:132 *521:36 0
69 *410:71 *521:14 0.000448209
*RES
1 *1731:Y *521:8 40.5356 
2 *521:8 *521:14 26.4787 
3 *521:14 *521:26 5.5002 
4 *521:26 *521:30 3.7595 
5 *521:30 *521:36 29.3839 
6 *521:36 *1740:A1 41.4008 
7 *521:36 *1744:A1 46.4066 
8 *521:30 *1735:B 20.7519 
9 *521:26 *1749:A1 20 
10 *521:14 *1756:A1 20 
11 *521:8 *1753:A1 44.0067 
*END

*D_NET *522 0.0030512
*CONN
*I *1742:B I *D sg13cmos5l_xor2_1
*I *1733:C I *D sg13cmos5l_and3_1
*I *1746:A2 I *D sg13cmos5l_a21oi_1
*I *1732:Y O *D sg13cmos5l_nor2b_1
*CAP
1 *1742:B 0.000217177
2 *1733:C 0.000105363
3 *1746:A2 0.000255558
4 *1732:Y 7.03916e-05
5 *522:21 0.000473623
6 *522:8 0.000477033
7 *1742:B *1743:B 0
8 *1742:B *756:10 0.000342659
9 *1746:A2 *1733:A 0
10 *1746:A2 *1745:A 0
11 *1746:A2 *1746:A1 0.000111839
12 *1746:A2 *756:12 0.000346217
13 *522:21 *1733:A 0
14 *522:21 *756:10 0.000106064
15 *522:21 *756:12 0.00028843
16 *180:24 *1742:B 0
17 *300:14 *1742:B 0.000112552
18 *308:72 *1742:B 0
19 *364:32 *1733:C 0.000144298
20 *521:26 *1746:A2 0
*RES
1 *1732:Y *522:8 40.5356 
2 *522:8 *1746:A2 42.5544 
3 *522:8 *522:21 1.8334 
4 *522:21 *1733:C 40.9682 
5 *522:21 *1742:B 42.5544 
*END

*D_NET *523 0.00783832
*CONN
*I *1751:B I *D sg13cmos5l_nand3b_1
*I *1734:C I *D sg13cmos5l_and3_1
*I *1755:A2 I *D sg13cmos5l_a21oi_1
*I *1747:A I *D sg13cmos5l_nor2_1
*I *1752:A2 I *D sg13cmos5l_o21ai_1
*I *1733:X O *D sg13cmos5l_and3_1
*CAP
1 *1751:B 0.000195972
2 *1734:C 8.58183e-05
3 *1755:A2 0.000517151
4 *1747:A 0.000489528
5 *1752:A2 0
6 *1733:X 0.000226158
7 *523:27 0.00110406
8 *523:25 0.000429337
9 *523:23 0.000505194
10 *523:14 0.000321961
11 *523:10 0.000485029
12 *1734:C *1734:B 1.54008e-05
13 *1734:C *1756:B1 0
14 *1734:C *619:81 0
15 *1747:A *1747:B 8.00954e-05
16 *1747:A *1748:B 0
17 *1747:A *1754:A 8.00842e-05
18 *1747:A *539:8 0
19 *1747:A *585:56 0.000447547
20 *1747:A *676:10 0
21 *1747:A *677:68 0
22 *1751:B *1751:C 1.54008e-05
23 *1751:B *563:98 0
24 *1755:A2 *1756:B1 0.000208351
25 *1755:A2 *758:26 0.000338487
26 *523:10 *663:79 0.000240614
27 *523:10 *677:24 0.000235656
28 *523:10 *756:10 0
29 *523:14 *1743:B 0
30 *523:14 *1752:B1 1.54446e-05
31 *523:14 *1752:A1 1.54446e-05
32 *523:23 *1752:B1 0.00011209
33 *523:23 *1752:A1 6.46834e-05
34 *523:23 *712:35 4.7154e-05
35 *523:25 *712:48 0.000609895
36 *523:27 *585:56 0.000182626
37 *1563:A *1755:A2 0
38 *1571:A2 *1747:A 7.97045e-05
39 *1571:A2 *1755:A2 0
40 *1754:B *1747:A 0
41 *24:16 *1751:B 8.02276e-05
42 *74:10 *1755:A2 0.000143667
43 *74:10 *523:25 0
44 *203:41 *1747:A 0
45 *203:41 *1751:B 0
46 *203:41 *523:27 0
47 *308:72 *1751:B 0.000144999
48 *308:72 *523:14 0
49 *312:33 *1734:C 0
50 *364:32 *523:10 0.000175875
51 *371:16 *1747:A 0
52 *410:71 *523:25 0
53 *410:71 *523:27 0
54 *521:14 *1755:A2 0.000144661
55 *521:26 *1747:A 0
*RES
1 *1733:X *523:10 42.7089 
2 *523:10 *523:14 22.266 
3 *523:14 *1752:A2 20 
4 *523:14 *523:23 20.7519 
5 *523:23 *523:25 3.3166 
6 *523:25 *523:27 1.0918 
7 *523:27 *1747:A 45.2489 
8 *523:27 *1755:A2 45.5311 
9 *523:25 *1734:C 40.7519 
10 *523:23 *1751:B 42.1321 
*END

*D_NET *524 0.00680916
*CONN
*I *1743:A I *D sg13cmos5l_nor2_1
*I *1748:A I *D sg13cmos5l_nor2_1
*I *1735:C I *D sg13cmos5l_nor3_1
*I *1739:A I *D sg13cmos5l_nor2_1
*I *1734:X O *D sg13cmos5l_and3_1
*CAP
1 *1743:A 0
2 *1748:A 0
3 *1735:C 0
4 *1739:A 0
5 *1734:X 0
6 *524:47 0.000263531
7 *524:34 0.000221383
8 *524:16 0.000528073
9 *524:10 0.000654493
10 *524:8 0.000902546
11 *524:4 0.000818273
12 *524:8 *1732:A 0.000176873
13 *524:8 *1749:B1 0
14 *524:8 *1749:A2 0
15 *524:8 *619:81 0
16 *524:8 *619:87 0
17 *524:8 *677:68 0
18 *524:10 *1732:A 0
19 *524:10 *1749:A2 7.93152e-05
20 *524:16 *663:87 0
21 *524:16 *672:117 0.000449862
22 *524:34 *535:10 0.000144532
23 *524:34 *544:11 0
24 *524:34 *674:20 0.000237256
25 *524:47 *1734:B 0
26 *524:47 *1756:B1 1.54446e-05
27 *524:47 *676:10 0
28 *1498:A *524:16 0
29 *1735:B *524:10 1.54008e-05
30 *1741:B *524:16 0
31 *203:41 *524:47 0.000556527
32 *287:35 *524:16 0
33 *303:18 *524:16 0.00173025
34 *521:26 *524:34 1.54008e-05
35 *521:30 *524:8 0
36 *521:30 *524:10 0
37 *521:30 *524:34 0
*RES
1 *1734:X *524:4 20 
2 *524:4 *524:8 4.7536 
3 *524:8 *524:10 1.1845 
4 *524:10 *524:16 48.0134 
5 *524:16 *1739:A 20 
6 *524:10 *1735:C 20 
7 *524:8 *524:34 42.2763 
8 *524:34 *1748:A 20 
9 *524:4 *524:47 43.3269 
10 *524:47 *1743:A 20 
*END

*D_NET *525 0.0012808
*CONN
*I *1736:B1 I *D sg13cmos5l_a21o_1
*I *1735:Y O *D sg13cmos5l_nor3_1
*CAP
1 *1736:B1 0.000183993
2 *1735:Y 8.69847e-05
3 *525:8 0.000270978
4 *525:8 *672:117 0.000342906
5 *1498:A *525:8 0.000395938
*RES
1 *1735:Y *525:8 41.8334 
2 *525:8 *1736:B1 41.4008 
*END

*D_NET *526 0.00300949
*CONN
*I *1740:B1 I *D sg13cmos5l_o21ai_1
*I *1737:Y O *D sg13cmos5l_nand2_1
*CAP
1 *1740:B1 6.11231e-05
2 *1737:Y 0.000871182
3 *526:12 0.000932305
4 *1740:B1 *1740:A2 0.000112634
5 *526:12 *1610:C1 0
6 *526:12 *1732:B_N 0
7 *1231:A *526:12 0
8 *1498:B *526:12 0
9 *1617:B1 *526:12 0
10 *1738:A *526:12 0
11 *1744:A1 *526:12 0
12 *1824:D *526:12 2.21754e-05
13 *4:38 *1740:B1 0
14 *70:10 *1740:B1 8.02379e-05
15 *258:74 *526:12 0.000556222
16 *407:33 *526:12 0.000122553
17 *410:85 *526:12 1.54008e-05
18 *412:12 *526:12 0.000235658
19 *521:36 *526:12 0
*RES
1 *1737:Y *526:12 48.5902 
2 *526:12 *1740:B1 40.7519 
*END

*D_NET *527 0.00135844
*CONN
*I *1739:B I *D sg13cmos5l_nor2_1
*I *1738:Y O *D sg13cmos5l_xnor2_1
*CAP
1 *1739:B 0.000252965
2 *1738:Y 0.000203282
3 *527:8 0.000456247
4 *1739:B *1740:A2 0
5 *527:8 *636:33 0
6 *527:8 *674:98 0
7 *1744:A1 *1739:B 0.000370795
8 *1744:A1 *527:8 7.51542e-05
9 *70:10 *527:8 0
10 *332:8 *1739:B 0
*RES
1 *1738:Y *527:8 41.8334 
2 *527:8 *1739:B 42.4823 
*END

*D_NET *528 0.00117749
*CONN
*I *1740:A2 I *D sg13cmos5l_o21ai_1
*I *1739:Y O *D sg13cmos5l_nor2_1
*CAP
1 *1740:A2 0.000428017
2 *1739:Y 0.000428017
3 *1739:B *1740:A2 0
4 *1740:B1 *1740:A2 0.000112634
5 *1740:A1 *1740:A2 0.000208824
6 *4:38 *1740:A2 0
7 *52:8 *1740:A2 0
8 *52:14 *1740:A2 0
*RES
1 *1739:Y *1740:A2 43.914 
*END

*D_NET *529 0.00249285
*CONN
*I *1744:B1 I *D sg13cmos5l_o21ai_1
*I *1741:Y O *D sg13cmos5l_nand2_1
*CAP
1 *1744:B1 0
2 *1741:Y 0.000655485
3 *529:10 0.000655485
4 *529:10 *1741:A 0
5 *529:10 *1826:CLK 0.000339245
6 *529:10 *544:11 0
7 *529:10 *544:106 0
8 *529:10 *564:18 0
9 *529:10 *564:48 4.78195e-05
10 *1741:B *529:10 7.99828e-05
11 *180:24 *529:10 0.000714833
*RES
1 *1741:Y *529:10 47.0967 
2 *529:10 *1744:B1 40 
*END

*D_NET *530 0.00125583
*CONN
*I *1743:B I *D sg13cmos5l_nor2_1
*I *1742:X O *D sg13cmos5l_xor2_1
*CAP
1 *1743:B 0.000451255
2 *1742:X 0.000451255
3 *1743:B *1752:A1 1.54446e-05
4 *1743:B *663:79 0.00033788
5 *1742:B *1743:B 0
6 *1983:A *1743:B 0
7 *308:72 *1743:B 0
8 *523:14 *1743:B 0
*RES
1 *1742:X *1743:B 44.2642 
*END

*D_NET *531 0.00208629
*CONN
*I *1744:A2 I *D sg13cmos5l_o21ai_1
*I *1743:Y O *D sg13cmos5l_nor2_1
*CAP
1 *1744:A2 0.000365723
2 *1743:Y 0.000597455
3 *531:8 0.000963177
4 *1744:A2 *1827:RESET_B 0
5 *1744:A2 *1827:D 0
6 *1744:A2 *676:25 0
7 *1744:A2 *756:8 0.000144521
8 *531:8 *538:8 0
9 *531:8 *676:10 0
10 *531:8 *677:24 0
11 *531:8 *677:81 0
12 *1744:A1 *1744:A2 1.54118e-05
13 *1834:A *1744:A2 0
14 *1996:A *1744:A2 0
15 *203:41 *531:8 0
*RES
1 *1743:Y *531:8 45.2942 
2 *531:8 *1744:A2 43.3475 
*END

*D_NET *532 0.00121303
*CONN
*I *1749:B1 I *D sg13cmos5l_o21ai_1
*I *1745:Y O *D sg13cmos5l_nand2_1
*CAP
1 *1749:B1 1.16032e-05
2 *1745:Y 9.33725e-05
3 *532:8 0.000104976
4 *180:24 *532:8 0.000502304
5 *332:14 *532:8 0.000500774
6 *524:8 *1749:B1 0
*RES
1 *1745:Y *532:8 42.3124 
2 *532:8 *1749:B1 40.1185 
*END

*D_NET *533 0.000287087
*CONN
*I *1747:B I *D sg13cmos5l_nor2_1
*I *1746:Y O *D sg13cmos5l_a21oi_1
*CAP
1 *1747:B 0.000103496
2 *1746:Y 0.000103496
3 *1747:B *1748:B 0
4 *1747:A *1747:B 8.00954e-05
5 *521:26 *1747:B 0
*RES
1 *1746:Y *1747:B 41.133 
*END

*D_NET *534 0.000562321
*CONN
*I *1748:B I *D sg13cmos5l_nor2_1
*I *1747:Y O *D sg13cmos5l_nor2_1
*CAP
1 *1748:B 0.000201388
2 *1747:Y 0.000201388
3 *1748:B *705:36 1.54556e-05
4 *1748:B *756:22 0.000144089
5 *1747:A *1748:B 0
6 *1747:B *1748:B 0
7 *1754:B *1748:B 0
8 *521:26 *1748:B 0
*RES
1 *1747:Y *1748:B 41.9982 
*END

*D_NET *535 0.00153976
*CONN
*I *1749:A2 I *D sg13cmos5l_o21ai_1
*I *1748:Y O *D sg13cmos5l_nor2_1
*CAP
1 *1749:A2 0.00014899
2 *1748:Y 0.000232204
3 *535:10 0.000381195
4 *535:10 *674:20 0.000237505
5 *535:10 *756:22 0
6 *1569:D *535:10 7.4933e-05
7 *303:18 *535:10 0
8 *521:30 *1749:A2 0.000241089
9 *524:8 *1749:A2 0
10 *524:10 *1749:A2 7.93152e-05
11 *524:34 *535:10 0.000144532
*RES
1 *1748:Y *535:10 42.4926 
2 *535:10 *1749:A2 41.6171 
*END

*D_NET *536 0.000297274
*CONN
*I *1753:B1 I *D sg13cmos5l_o21ai_1
*I *1750:Y O *D sg13cmos5l_nand2_1
*CAP
1 *1753:B1 0
2 *1750:Y 0.000148637
3 *536:8 0.000148637
4 *536:8 *595:37 0
5 *536:8 *634:10 0
*RES
1 *1750:Y *536:8 41.339 
2 *536:8 *1753:B1 40 
*END

*D_NET *537 0.000569679
*CONN
*I *1752:B1 I *D sg13cmos5l_o21ai_1
*I *1751:Y O *D sg13cmos5l_nand3b_1
*CAP
1 *1752:B1 0.000141214
2 *1751:Y 0.000141214
3 *1752:B1 *712:35 1.54556e-05
4 *308:72 *1752:B1 0.000144261
5 *523:14 *1752:B1 1.54446e-05
6 *523:23 *1752:B1 0.00011209
*RES
1 *1751:Y *1752:B1 41.4008 
*END

*D_NET *538 0.00222493
*CONN
*I *1753:A2 I *D sg13cmos5l_o21ai_1
*I *1752:Y O *D sg13cmos5l_o21ai_1
*CAP
1 *1753:A2 0.000318552
2 *1752:Y 6.24054e-05
3 *538:16 0.000401906
4 *538:8 0.000145759
5 *1753:A2 *1751:A_N 0
6 *1753:A2 *563:98 0.000209505
7 *1753:A2 *595:37 0.000435456
8 *538:16 *563:98 8.00842e-05
9 *1753:A1 *1753:A2 0.000176474
10 *1986:A *1753:A2 0
11 *24:16 *538:16 8.0194e-05
12 *203:41 *538:8 0.000184999
13 *203:41 *538:16 0.000129592
14 *531:8 *538:8 0
*RES
1 *1752:Y *538:8 40.8446 
2 *538:8 *538:16 41.133 
3 *538:16 *1753:A2 43.5638 
*END

*D_NET *539 0.0006916
*CONN
*I *1756:A2 I *D sg13cmos5l_a21oi_1
*I *1754:Y O *D sg13cmos5l_nand2_1
*CAP
1 *1756:A2 0
2 *1754:Y 0.000136111
3 *539:8 0.000136111
4 *539:8 *1754:A 0
5 *539:8 *677:68 0.00023548
6 *1571:A2 *539:8 0.000107089
7 *1747:A *539:8 0
8 *373:24 *539:8 7.68089e-05
*RES
1 *1754:Y *539:8 41.8334 
2 *539:8 *1756:A2 40 
*END

*D_NET *540 0.00103398
*CONN
*I *1982:A I *D sg13cmos5l_dlygate4sd3_1
*I *1755:Y O *D sg13cmos5l_a21oi_1
*CAP
1 *1982:A 0
2 *1755:Y 0.000328735
3 *540:10 0.000328735
4 *540:10 *1751:A_N 0
5 *540:10 *1755:B1 0.000144063
6 *540:10 *758:26 0.000208955
7 *312:33 *540:10 2.34933e-05
8 *410:71 *540:10 0
9 *521:14 *540:10 0
*RES
1 *1755:Y *540:10 43.2342 
2 *540:10 *1982:A 40 
*END

*D_NET *541 0.00033858
*CONN
*I *1758:B1 I *D sg13cmos5l_o21ai_1
*I *1757:Y O *D sg13cmos5l_nand2_1
*CAP
1 *1758:B1 0.00016929
2 *1757:Y 0.00016929
3 *1758:B1 *754:50 0
4 *1967:A *1758:B1 0
*RES
1 *1757:Y *1758:B1 41.6583 
*END

*D_NET *542 0.00412596
*CONN
*I *1760:B1 I *D sg13cmos5l_o21ai_1
*I *1759:Y O *D sg13cmos5l_nand2_1
*CAP
1 *1760:B1 0.00029301
2 *1759:Y 0.000520934
3 *542:12 0.000813945
4 *1760:B1 *1350:A 0
5 *542:12 *1759:A 8.02105e-05
6 *542:12 *566:35 0
7 *542:12 *682:14 0.000984099
8 *542:12 *693:10 0.000661386
9 *1349:B1 *1760:B1 0.000273893
10 *1506:A *542:12 0
11 *157:27 *1760:B1 0.000305767
12 *308:37 *542:12 0.000112525
13 *309:36 *1760:B1 8.01938e-05
*RES
1 *1759:Y *542:12 47.3542 
2 *542:12 *1760:B1 42.9017 
*END

*D_NET *543 0.00177116
*CONN
*I *1791:D I *D sg13cmos5l_dfrbpq_1
*I *1491:Y O *D sg13cmos5l_o21ai_1
*CAP
1 *1791:D 0.000154223
2 *1491:Y 0.000426059
3 *543:10 0.000580281
4 *1791:D *773:18 0.000241423
5 *543:10 *678:53 0
6 *1491:B1 *543:10 1.54008e-05
7 *162:35 *1791:D 0.000273693
8 *172:54 *543:10 8.00842e-05
9 *202:85 *543:10 0
*RES
1 *1491:Y *543:10 43.3578 
2 *543:10 *1791:D 41.8334 
*END

*D_NET *544 0.0326155
*CONN
*I *1857:A I *D sg13cmos5l_buf_8
*I *1856:A I *D sg13cmos5l_buf_8
*I *1855:A I *D sg13cmos5l_buf_8
*I *1854:A I *D sg13cmos5l_buf_8
*I *1851:A I *D sg13cmos5l_buf_8
*I *1853:A I *D sg13cmos5l_buf_8
*I *1850:A I *D sg13cmos5l_buf_8
*I *1852:A I *D sg13cmos5l_buf_8
*I *1834:X O *D sg13cmos5l_buf_8
*CAP
1 *1857:A 5.83035e-05
2 *1856:A 5.83879e-05
3 *1855:A 0.000144432
4 *1854:A 0
5 *1851:A 0
6 *1853:A 0
7 *1850:A 6.03483e-05
8 *1852:A 0.000115188
9 *1834:X 0
10 *544:188 0.00161545
11 *544:174 0.00251961
12 *544:164 0.00165905
13 *544:140 0.00065319
14 *544:128 0.00243519
15 *544:118 5.26959e-05
16 *544:110 0.000335353
17 *544:108 0.0023355
18 *544:106 0.00236141
19 *544:96 5.37668e-05
20 *544:88 0.000958666
21 *544:74 0.000788615
22 *544:68 0.00132861
23 *544:43 0.000809526
24 *544:31 0.00175629
25 *544:21 0.00285515
26 *544:15 0.00275566
27 *544:11 0.00340637
28 *544:6 0.0034987
29 *1852:A *645:22 0
30 *1855:A *626:12 0
31 *1857:A *641:48 0
32 *544:11 *674:20 0
33 *544:11 *756:26 0
34 *544:15 *756:26 0
35 *544:21 *574:14 0
36 *544:21 *576:33 0
37 *544:21 *654:10 0
38 *544:21 *654:134 0
39 *544:21 *706:85 0
40 *544:21 *711:14 0
41 *544:31 *576:33 0
42 *544:31 *654:115 0
43 *544:31 *695:87 0
44 *544:31 *706:85 0
45 *544:43 *1236:A 0
46 *544:43 *578:21 0
47 *544:43 *645:22 0
48 *544:43 *717:76 0
49 *544:68 *574:14 0
50 *544:68 *711:14 0
51 *544:88 *635:22 0
52 *544:88 *677:30 0
53 *544:88 *711:14 0
54 *544:96 *573:31 0
55 *544:96 *711:10 0
56 *544:106 *674:113 0
57 *544:108 *776:17 0
58 *544:110 *776:17 0
59 *544:118 *1803:CLK 0
60 *544:128 *626:37 0
61 *544:128 *638:27 0
62 *544:128 *656:54 0
63 *544:128 *660:48 0
64 *544:164 *1447:B 0
65 *544:164 *1861:A 0
66 *544:164 *663:105 0
67 *544:164 *740:71 0
68 *544:164 *760:10 0
69 *544:164 *776:17 0
70 *544:174 *1807:CLK 0
71 *544:174 *731:30 0
72 *544:174 *740:71 0
73 *1359:B *1856:A 0
74 *1386:A1 *544:128 0
75 *1411:A *544:188 0
76 *1416:D *544:174 0
77 *1421:A *1855:A 0
78 *1421:A *544:140 0
79 *1426:B *544:140 0
80 *1443:B *544:188 0
81 *1462:A2 *1856:A 0
82 *1462:A2 *544:174 0
83 *1464:B2 *1855:A 0
84 *1464:B2 *544:140 0
85 *1474:B1 *544:188 0
86 *1632:A2 *1850:A 0
87 *1693:B *544:43 0
88 *83:14 *544:43 0
89 *135:42 *544:164 0
90 *135:42 *544:174 0
91 *148:14 *1857:A 0
92 *148:14 *544:188 0
93 *163:16 *544:164 0
94 *163:64 *544:106 0
95 *179:12 *544:188 0
96 *180:24 *544:11 0
97 *180:24 *544:106 0
98 *180:39 *544:118 0
99 *193:33 *544:106 0
100 *193:33 *544:128 0
101 *196:24 *1855:A 0
102 *223:40 *544:188 0
103 *281:14 *544:188 0
104 *283:20 *544:188 0
105 *290:14 *544:128 0
106 *290:28 *544:128 0
107 *292:16 *544:128 0
108 *332:14 *544:11 0
109 *332:14 *544:15 0
110 *338:39 *544:88 0
111 *338:65 *544:88 0
112 *338:82 *544:88 0
113 *338:90 *544:31 0
114 *341:18 *544:21 0
115 *345:16 *544:21 0
116 *347:26 *544:21 0
117 *347:51 *544:21 0
118 *358:16 *544:68 0
119 *365:37 *544:43 0
120 *365:56 *1852:A 0
121 *365:56 *544:43 0
122 *372:115 *544:31 0
123 *385:29 *544:74 0
124 *393:40 *544:21 0
125 *416:34 *544:21 0
126 *427:12 *544:31 0
127 *428:36 *1850:A 0
128 *455:14 *1850:A 0
129 *477:33 *544:43 0
130 *487:12 *544:43 0
131 *524:34 *544:11 0
132 *529:10 *544:11 0
133 *529:10 *544:106 0
*RES
1 *1834:X *544:6 40 
2 *544:6 *544:11 16.9126 
3 *544:11 *544:15 23.5638 
4 *544:15 *544:21 35.5015 
5 *544:21 *544:31 30.5781 
6 *544:31 *544:43 45.9431 
7 *544:43 *1852:A 20.9682 
8 *544:21 *1850:A 40.5974 
9 *544:15 *544:68 46.1594 
10 *544:68 *544:74 26.0461 
11 *544:74 *1853:A 40 
12 *544:11 *544:88 28.9713 
13 *544:88 *544:96 40.5356 
14 *544:96 *1851:A 20 
15 *544:6 *544:106 32.463 
16 *544:106 *544:108 1.1845 
17 *544:108 *544:110 2.6986 
18 *544:110 *544:118 40.5356 
19 *544:118 *1854:A 20 
20 *544:108 *544:128 34.6878 
21 *544:128 *544:140 24.4755 
22 *544:140 *1855:A 21.1845 
23 *544:106 *544:164 47.931 
24 *544:164 *544:174 27.5149 
25 *544:174 *1856:A 40.5356 
26 *544:174 *544:188 13.2046 
27 *544:188 *1857:A 40.5356 
*END

*D_NET *545 0.000771395
*CONN
*I *1841:A I *D sg13cmos5l_buf_8
*I *1835:X O *D sg13cmos5l_buf_8
*CAP
1 *1841:A 7.45918e-05
2 *1835:X 0.000145949
3 *545:13 0.000239749
4 *545:8 0.000311106
5 *1841:A *1861:A 0
6 *545:8 *1861:A 0
7 *545:13 *1803:CLK 0
8 *545:13 *656:64 0
9 *288:18 *1841:A 0
10 *293:10 *1841:A 0
11 *293:10 *545:8 0
*RES
1 *1835:X *545:8 41.1845 
2 *545:8 *545:13 1.339 
3 *545:13 *1841:A 40.7519 
*END

*D_NET *546 0.00537142
*CONN
*I *1842:A I *D sg13cmos5l_buf_8
*I *1847:A I *D sg13cmos5l_buf_8
*I *1836:X O *D sg13cmos5l_buf_8
*CAP
1 *1842:A 0.000116997
2 *1847:A 0.000101877
3 *1836:X 0.000162452
4 *546:48 0.00111686
5 *546:39 0.00114647
6 *546:21 0.0014064
7 *546:6 0.00132037
8 *1842:A *773:18 0
9 *1847:A *564:6 0
10 *546:21 *1797:RESET_B 0
11 *546:21 *1803:D 0
12 *546:21 *1844:A 0
13 *546:21 *548:19 0
14 *546:21 *564:6 0
15 *546:21 *658:76 0
16 *546:39 *658:76 0
17 *546:48 *552:29 0
18 *546:48 *769:14 0
19 *546:48 *772:20 0
20 *546:48 *773:18 0
21 *1486:A1 *1842:A 0
22 *1486:A1 *546:48 0
23 *1796:D *546:39 0
24 *31:12 *546:48 0
25 *180:73 *546:21 0
26 *258:27 *546:21 0
27 *288:18 *546:48 0
28 *292:10 *1847:A 0
29 *292:10 *546:21 0
30 *305:10 *546:21 0
31 *305:16 *546:21 0
*RES
1 *1836:X *546:6 20.1648 
2 *546:6 *546:21 11.8359 
3 *546:21 *1847:A 20.9682 
4 *1836:X *546:39 41.1845 
5 *546:39 *546:48 27.8383 
6 *546:48 *1842:A 20.9682 
*END

*D_NET *547 0.00262069
*CONN
*I *1843:A I *D sg13cmos5l_buf_8
*I *1837:X O *D sg13cmos5l_buf_8
*CAP
1 *1843:A 0
2 *1837:X 2.10747e-05
3 *547:15 0.00128927
4 *547:6 0.00131034
5 *547:15 *564:20 0
6 *547:15 *674:43 0
7 *547:15 *675:14 0
8 *547:15 *765:13 0
9 *547:15 *766:15 0
10 *1965:A *547:15 0
11 *86:8 *547:15 0
12 *305:28 *547:15 0
*RES
1 *1837:X *547:6 20.1648 
2 *547:6 *547:15 30.4957 
3 *547:15 *1843:A 40 
*END

*D_NET *548 0.00408555
*CONN
*I *1848:A I *D sg13cmos5l_buf_8
*I *1844:A I *D sg13cmos5l_buf_8
*I *1838:X O *D sg13cmos5l_buf_8
*CAP
1 *1848:A 0.000123172
2 *1844:A 0.000123335
3 *1838:X 0.00018076
4 *548:33 0.000762508
5 *548:19 0.000952562
6 *548:13 0.00161551
7 *548:6 0.000327704
8 *1486:A1 *1848:A 0
9 *202:16 *548:19 0
10 *202:16 *548:33 0
11 *288:18 *548:6 0
12 *288:18 *548:13 0
13 *292:10 *548:19 0
14 *293:14 *548:6 0
15 *293:14 *548:13 0
16 *294:10 *1848:A 0
17 *546:21 *1844:A 0
18 *546:21 *548:19 0
*RES
1 *1838:X *548:6 21.4729 
2 *548:6 *548:13 21.3287 
3 *548:13 *548:19 26.8186 
4 *548:19 *1844:A 20.9682 
5 *548:13 *548:33 25.5414 
6 *548:33 *1848:A 20.9682 
*END

*D_NET *549 0.00148883
*CONN
*I *1845:A I *D sg13cmos5l_buf_8
*I *1839:X O *D sg13cmos5l_buf_8
*CAP
1 *1845:A 0.000102376
2 *1839:X 0.00013043
3 *549:19 0.000613986
4 *549:6 0.00064204
5 *1845:A *776:21 0
6 *549:19 *1796:CLK 0
7 *549:19 *776:21 0
8 *209:24 *1845:A 0
9 *209:24 *549:19 0
*RES
1 *1839:X *549:6 21.0094 
2 *549:6 *549:19 4.8925 
3 *549:19 *1845:A 20.9682 
*END

*D_NET *550 0.00436842
*CONN
*I *1849:A I *D sg13cmos5l_buf_8
*I *1846:A I *D sg13cmos5l_buf_8
*I *1840:X O *D sg13cmos5l_buf_8
*CAP
1 *1849:A 0.000108401
2 *1846:A 0.000113789
3 *1840:X 0
4 *550:37 0.0010545
5 *550:28 0.000972292
6 *550:15 0.000921669
7 *550:6 0.00098973
8 *550:4 0.000208046
9 *1849:A *1517:A 0
10 *1849:A *1831:RESET_B 0
11 *550:15 *1808:RESET_B 0
12 *550:37 *1831:RESET_B 0
13 *550:37 *676:65 0
14 *550:37 *682:14 0
15 *550:37 *777:15 0
16 *1504:C1 *550:6 0
17 *1504:C1 *550:28 0
18 *1807:D *550:6 0
19 *1807:D *550:15 0
20 *1807:D *550:28 0
21 *3:15 *1849:A 0
22 *3:15 *550:37 0
23 *53:16 *550:6 0
24 *53:16 *550:15 0
25 *135:52 *550:37 0
26 *292:10 *1846:A 0
27 *292:10 *550:15 0
28 *299:22 *550:37 0
*RES
1 *1840:X *550:4 20 
2 *550:4 *550:6 1.63725 
3 *550:6 *550:15 8.04945 
4 *550:15 *1846:A 21.1845 
5 *550:4 *550:28 20.3193 
6 *550:28 *550:37 28.0237 
7 *550:37 *1849:A 20.9682 
*END

*D_NET *551 0.00649326
*CONN
*I *1482:A I *D sg13cmos5l_nand2_1
*I *1841:X O *D sg13cmos5l_buf_8
*CAP
1 *1482:A 0
2 *1841:X 0.000173187
3 *551:12 0.00149434
4 *551:8 0.00166753
5 *551:8 *1861:A 0
6 *551:12 *1356:B 0.000658895
7 *551:12 *1393:A_N 0.00012816
8 *551:12 *1803:CLK 0
9 *551:12 *556:8 0
10 *551:12 *636:33 0
11 *551:12 *656:54 0
12 *551:12 *657:41 0
13 *551:12 *664:29 0.000181192
14 *551:12 *668:64 0.000769211
15 *1426:B *551:12 0
16 *160:10 *551:12 0
17 *164:8 *551:12 0.00087535
18 *180:39 *551:8 0
19 *229:27 *551:12 0.000396877
20 *232:8 *551:12 0.00014852
*RES
1 *1841:X *551:8 41.4008 
2 *551:8 *551:12 37.6542 
3 *551:12 *1482:A 20 
*END

*D_NET *552 0.00955702
*CONN
*I *1797:CLK I *D sg13cmos5l_dfrbpq_1
*I *1862:A I *D sg13cmos5l_buf_1
*I *1842:X O *D sg13cmos5l_buf_8
*CAP
1 *1797:CLK 0.000345386
2 *1862:A 0
3 *1842:X 3.01051e-05
4 *552:29 0.00120132
5 *552:12 0.00100906
6 *552:6 0.00189511
7 *1797:CLK *658:76 0.000490047
8 *552:12 *678:12 0
9 *552:12 *771:38 0.000128663
10 *552:12 *774:8 0.00018261
11 *552:12 *774:25 0.0007988
12 *552:29 *555:14 0.00119623
13 *552:29 *772:48 0.00044728
14 *1796:D *552:29 8.0057e-05
15 *33:10 *552:12 0
16 *162:35 *552:6 3.20556e-05
17 *162:35 *552:12 0.000466642
18 *209:58 *552:12 0
19 *288:18 *552:29 0
20 *293:14 *1797:CLK 0
21 *293:14 *552:29 0.000218104
22 *293:18 *552:12 0.00103555
23 *546:48 *552:29 0
*RES
1 *1842:X *552:6 20.3193 
2 *552:6 *552:12 31.8862 
3 *552:12 *1862:A 40 
4 *552:6 *552:29 49.8262 
5 *552:29 *1797:CLK 23.2857 
*END

*D_NET *553 0.00186276
*CONN
*I *1484:B2 I *D sg13cmos5l_a221oi_1
*I *1843:X O *D sg13cmos5l_buf_8
*CAP
1 *1484:B2 0.000682179
2 *1843:X 0.000682179
3 *1484:B2 *554:10 0
4 *1484:B2 *656:70 0
5 *1484:C1 *1484:B2 1.54008e-05
6 *1484:A2 *1484:B2 0
7 *1801:D *1484:B2 0.000177225
8 *306:20 *1484:B2 0.000305772
*RES
1 *1843:X *1484:B2 46.7774 
*END

*D_NET *554 0.00213324
*CONN
*I *1247:A I *D sg13cmos5l_inv_1
*I *1844:X O *D sg13cmos5l_buf_8
*CAP
1 *1247:A 9.52434e-05
2 *1844:X 0.000476069
3 *554:10 0.000571313
4 *554:10 *656:70 0
5 *554:10 *685:8 0.000556045
6 *1484:B2 *554:10 0
7 *55:10 *554:10 0.000434566
8 *202:16 *554:10 0
*RES
1 *1844:X *554:10 45.4899 
2 *554:10 *1247:A 40.7519 
*END

*D_NET *555 0.00455085
*CONN
*I *1484:A1 I *D sg13cmos5l_a221oi_1
*I *1845:X O *D sg13cmos5l_buf_8
*CAP
1 *1484:A1 0
2 *1845:X 0.000165523
3 *555:14 0.00114966
4 *555:8 0.00131518
5 *555:8 *770:42 0.00030663
6 *555:14 *766:15 0
7 *1484:A2 *555:14 1.54008e-05
8 *31:12 *555:14 0
9 *209:24 *555:8 0.00030663
10 *209:32 *555:14 8.01938e-05
11 *292:10 *555:14 1.54008e-05
12 *552:29 *555:14 0.00119623
*RES
1 *1845:X *555:8 42.0497 
2 *555:8 *555:14 30.5266 
3 *555:14 *1484:A1 20 
*END

*D_NET *556 0.00424944
*CONN
*I *1803:CLK I *D sg13cmos5l_dfrbpq_1
*I *1861:A I *D sg13cmos5l_buf_1
*I *1846:X O *D sg13cmos5l_buf_8
*CAP
1 *1803:CLK 0.000706791
2 *1861:A 0.000977011
3 *1846:X 0.000368341
4 *556:8 0.00205214
5 *1803:CLK *656:64 0
6 *1861:A *1447:A 0
7 *1861:A *1447:B 0
8 *1861:A *1447:D 0
9 *556:8 *636:33 0
10 *556:8 *656:64 0
11 *1841:A *1861:A 0
12 *49:12 *1861:A 0
13 *135:42 *1861:A 0.000145157
14 *180:39 *1803:CLK 0
15 *180:39 *1861:A 0
16 *258:27 *1861:A 0
17 *288:18 *1803:CLK 0
18 *293:10 *1803:CLK 0
19 *293:14 *1803:CLK 0
20 *544:118 *1803:CLK 0
21 *544:164 *1861:A 0
22 *545:8 *1861:A 0
23 *545:13 *1803:CLK 0
24 *551:8 *1861:A 0
25 *551:12 *1803:CLK 0
26 *551:12 *556:8 0
*RES
1 *1846:X *556:8 43.5638 
2 *556:8 *1861:A 49.4039 
3 *556:8 *1803:CLK 46.6126 
*END

*D_NET *557 0.00153289
*CONN
*I *1246:A I *D sg13cmos5l_inv_1
*I *1847:X O *D sg13cmos5l_buf_8
*CAP
1 *1246:A 0.000528457
2 *1847:X 9.41111e-05
3 *557:8 0.000622568
4 *1246:A *660:48 0
5 *557:8 *564:12 0.000287758
6 *557:8 *660:48 0
*RES
1 *1847:X *557:8 41.339 
2 *557:8 *1246:A 43.9964 
*END

*D_NET *558 0.00743448
*CONN
*I *1863:A I *D sg13cmos5l_buf_1
*I *1801:CLK I *D sg13cmos5l_dfrbpq_1
*I *1848:X O *D sg13cmos5l_buf_8
*CAP
1 *1863:A 0
2 *1801:CLK 0
3 *1848:X 0.000239909
4 *558:23 0.000936716
5 *558:12 0.00119291
6 *558:8 0.00236954
7 *558:8 *1804:RESET_B 0
8 *558:12 *674:68 0
9 *558:12 *767:15 0
10 *558:12 *776:17 0
11 *558:23 *678:41 0
12 *558:23 *678:49 0
13 *558:23 *762:16 0
14 *558:23 *763:8 0.000240918
15 *558:23 *763:18 0
16 *1490:B *558:23 0.000788766
17 *27:29 *558:12 0.000714369
18 *27:29 *558:23 0.000426623
19 *161:23 *558:23 0
20 *180:73 *558:12 0
21 *196:24 *558:23 7.52149e-05
22 *202:95 *558:8 0
23 *202:95 *558:23 0.000449507
24 *294:10 *558:12 0
25 *294:10 *558:23 0
*RES
1 *1848:X *558:8 41.8334 
2 *558:8 *558:12 31.4742 
3 *558:12 *1801:CLK 20 
4 *558:8 *558:23 30.4957 
5 *558:23 *1863:A 20 
*END

*D_NET *559 0.00438015
*CONN
*I *1245:A I *D sg13cmos5l_inv_1
*I *1849:X O *D sg13cmos5l_buf_8
*CAP
1 *1245:A 0.00100499
2 *1849:X 0.000595658
3 *559:8 0.00160065
4 *1245:A *625:32 0
5 *559:8 *566:43 0
6 *559:8 *595:8 0.000305198
7 *1506:B *559:8 0
8 *1864:A *1245:A 0
9 *14:8 *1245:A 0
10 *308:26 *1245:A 0
11 *309:12 *559:8 0
12 *315:14 *1245:A 0.000873657
*RES
1 *1849:X *559:8 44.8616 
2 *559:8 *1245:A 49.1979 
*END

*D_NET *560 0.00735798
*CONN
*I *1818:CLK I *D sg13cmos5l_dfrbpq_1
*I *1817:CLK I *D sg13cmos5l_dfrbpq_1
*I *1770:CLK I *D sg13cmos5l_dfrbpq_1
*I *1769:CLK I *D sg13cmos5l_dfrbpq_1
*I *1768:CLK I *D sg13cmos5l_dfrbpq_1
*I *1767:CLK I *D sg13cmos5l_dfrbpq_1
*I *1776:CLK I *D sg13cmos5l_dfrbpq_1
*I *1850:X O *D sg13cmos5l_buf_8
*CAP
1 *1818:CLK 0.000391797
2 *1817:CLK 0
3 *1770:CLK 0.000239488
4 *1769:CLK 0
5 *1768:CLK 0
6 *1767:CLK 0
7 *1776:CLK 0.000248407
8 *1850:X 0.00068605
9 *560:57 0.000391797
10 *560:26 0.000733288
11 *560:18 0.000923902
12 *560:14 0.000601244
13 *560:12 0.000712374
14 *560:8 0.00099671
15 *1770:CLK *1770:RESET_B 0
16 *1770:CLK *1818:RESET_B 0
17 *1770:CLK *652:20 0
18 *1776:CLK *652:20 0
19 *1776:CLK *669:58 0
20 *1776:CLK *672:62 0
21 *1818:CLK *649:51 0
22 *1818:CLK *719:12 0.000597242
23 *1818:CLK *751:10 4.75151e-05
24 *560:8 *576:8 0
25 *560:8 *576:33 0
26 *560:8 *633:12 0
27 *560:8 *649:36 0
28 *560:8 *750:8 0
29 *560:12 *750:8 0
30 *560:14 *1947:A 0
31 *560:14 *652:20 0
32 *560:18 *1276:B 0
33 *560:18 *610:8 0
34 *560:18 *652:20 0
35 *560:18 *669:36 0
36 *560:26 *652:20 0
37 *560:26 *669:56 0
38 *560:26 *727:8 4.77154e-05
39 *1276:A *560:18 0.000208692
40 *1676:A2 *1818:CLK 0
41 *62:16 *1770:CLK 0
42 *62:16 *560:8 0
43 *62:16 *560:14 0
44 *106:25 *1770:CLK 0.000112618
45 *106:25 *560:14 0.000274397
46 *106:25 *560:18 0.000144742
47 *109:31 *560:8 0
48 *109:31 *560:12 0
49 *457:8 *560:8 0
*RES
1 *1850:X *560:8 46.0358 
2 *560:8 *560:12 22.8222 
3 *560:12 *560:14 1.8334 
4 *560:14 *560:18 4.3466 
5 *560:18 *560:26 4.4302 
6 *560:26 *1776:CLK 22.266 
7 *560:26 *1767:CLK 20 
8 *560:18 *1768:CLK 20 
9 *560:14 *1769:CLK 20 
10 *560:12 *1770:CLK 22.266 
11 *560:8 *560:57 20 
12 *560:57 *1817:CLK 20 
13 *560:57 *1818:CLK 24.3466 
*END

*D_NET *561 0.021287
*CONN
*I *1765:CLK I *D sg13cmos5l_dfrbpq_1
*I *1814:CLK I *D sg13cmos5l_dfrbpq_1
*I *1824:CLK I *D sg13cmos5l_dfrbpq_1
*I *1813:CLK I *D sg13cmos5l_dfrbpq_1
*I *1815:CLK I *D sg13cmos5l_dfrbpq_1
*I *1816:CLK I *D sg13cmos5l_dfrbpq_1
*I *1766:CLK I *D sg13cmos5l_dfrbpq_1
*I *1851:X O *D sg13cmos5l_buf_8
*CAP
1 *1765:CLK 0
2 *1814:CLK 0
3 *1824:CLK 0
4 *1813:CLK 0
5 *1815:CLK 0
6 *1816:CLK 0.000203819
7 *1766:CLK 0.000302477
8 *1851:X 0.00066164
9 *561:70 8.03207e-05
10 *561:62 0.00140236
11 *561:49 0.00185147
12 *561:22 0.000621037
13 *561:20 0.000470498
14 *561:18 0.000885189
15 *561:16 0.000277036
16 *561:12 0.000277036
17 *561:10 0.00066164
18 *1766:CLK *617:16 0
19 *1766:CLK *681:10 0.000982154
20 *1816:CLK *617:10 0.000207854
21 *561:10 *1984:A 0
22 *561:10 *573:31 0
23 *561:10 *695:26 0.000395067
24 *561:10 *711:10 0
25 *561:16 *573:31 8.00842e-05
26 *561:20 *681:10 0.00197463
27 *561:22 *681:10 0.000641362
28 *561:49 *1813:RESET_B 0
29 *561:49 *611:10 0
30 *561:49 *655:42 0
31 *561:49 *672:32 0
32 *561:49 *681:10 0.001977
33 *561:62 *655:42 0
34 *561:62 *681:10 5.34469e-05
35 *561:70 *663:87 0.000123899
36 *1815:D *1816:CLK 0.000337221
37 *85:16 *561:62 0
38 *86:22 *561:62 0.000476539
39 *93:24 *561:10 0.000394566
40 *94:12 *1766:CLK 0.000234224
41 *94:12 *561:20 0.00199441
42 *94:12 *561:22 0.000662302
43 *94:12 *561:49 0.000556566
44 *287:35 *561:70 7.65627e-05
45 *300:14 *561:70 0.000112151
46 *302:18 *561:62 0
47 *308:72 *561:70 0
48 *313:29 *561:62 0.00178475
49 *378:16 *561:10 8.00842e-05
50 *414:12 *561:49 0.000447598
51 *440:16 *1766:CLK 0
*RES
1 *1851:X *561:10 46.758 
2 *561:10 *561:12 20 
3 *561:12 *561:16 2.6162 
4 *561:16 *561:18 20 
5 *561:18 *561:20 9.2494 
6 *561:20 *561:22 3.0694 
7 *561:22 *1766:CLK 44.7998 
8 *561:22 *1816:CLK 42.266 
9 *561:20 *1815:CLK 40 
10 *561:18 *561:49 9.2494 
11 *561:49 *1813:CLK 40 
12 *561:49 *561:62 35.3779 
13 *561:62 *561:70 41.1021 
14 *561:70 *1824:CLK 20 
15 *561:16 *1814:CLK 20 
16 *561:12 *1765:CLK 20 
*END

*D_NET *562 0.0125001
*CONN
*I *1775:CLK I *D sg13cmos5l_dfrbpq_1
*I *1774:CLK I *D sg13cmos5l_dfrbpq_1
*I *1819:CLK I *D sg13cmos5l_dfrbpq_1
*I *1771:CLK I *D sg13cmos5l_dfrbpq_1
*I *1772:CLK I *D sg13cmos5l_dfrbpq_1
*I *1773:CLK I *D sg13cmos5l_dfrbpq_1
*I *1821:CLK I *D sg13cmos5l_dfrbpq_1
*I *1852:X O *D sg13cmos5l_buf_8
*CAP
1 *1775:CLK 0.000244031
2 *1774:CLK 0
3 *1819:CLK 0.000225098
4 *1771:CLK 0.000367124
5 *1772:CLK 2.77263e-05
6 *1773:CLK 2.77263e-05
7 *1821:CLK 0
8 *1852:X 0.000449732
9 *562:38 0.00101254
10 *562:29 0.000806964
11 *562:27 0.000920027
12 *562:19 0.00120791
13 *562:12 0.000783371
14 *562:8 0.000802608
15 *1771:CLK *1934:A 4.77702e-05
16 *1771:CLK *717:16 0
17 *1775:CLK *1820:CLK 0
18 *1819:CLK *670:32 0
19 *1819:CLK *670:38 1.54008e-05
20 *1819:CLK *670:42 0
21 *562:8 *579:8 0
22 *562:8 *597:16 0
23 *562:8 *646:26 0.000127878
24 *562:8 *646:38 0
25 *562:8 *646:46 0
26 *562:8 *706:54 0.000343038
27 *562:8 *706:62 0.000131027
28 *562:12 *1820:CLK 0
29 *562:19 *1820:CLK 0
30 *562:19 *1919:A 0.000240957
31 *562:27 *643:107 0.000554491
32 *562:27 *670:51 0.000144765
33 *562:29 *670:42 0.000337956
34 *562:29 *670:51 0.000257346
35 *562:38 *1928:A 0
36 *562:38 *670:38 0
37 *562:38 *670:42 0.000274529
38 *1819:D *1771:CLK 0
39 *1820:D *1771:CLK 0
40 *1820:D *1772:CLK 0
41 *1820:D *1773:CLK 0
42 *1820:D *562:38 0
43 *1821:D *562:29 0
44 *35:14 *1775:CLK 0.000160321
45 *35:14 *562:12 0.000565311
46 *35:14 *562:19 0.000676952
47 *37:12 *562:8 0.000608769
48 *127:16 *562:27 0.000208615
49 *132:10 *562:27 0
50 *483:10 *1771:CLK 0
51 *494:20 *562:8 0.000930162
*RES
1 *1852:X *562:8 47.2718 
2 *562:8 *562:12 23.7801 
3 *562:12 *1821:CLK 20 
4 *562:12 *562:19 4.6453 
5 *562:19 *562:27 45.4899 
6 *562:27 *562:29 3.9964 
7 *562:29 *1773:CLK 20.3502 
8 *562:29 *562:38 3.9964 
9 *562:38 *1772:CLK 20.3502 
10 *562:38 *1771:CLK 23.9964 
11 *562:38 *1819:CLK 22.9252 
12 *562:27 *1774:CLK 20 
13 *562:19 *1775:CLK 22.7707 
*END

*D_NET *563 0.0261673
*CONN
*I *1827:CLK I *D sg13cmos5l_dfrbpq_1
*I *1829:CLK I *D sg13cmos5l_dfrbpq_1
*I *1830:CLK I *D sg13cmos5l_dfrbpq_1
*I *1811:CLK I *D sg13cmos5l_dfrbpq_1
*I *1823:CLK I *D sg13cmos5l_dfrbpq_1
*I *1822:CLK I *D sg13cmos5l_dfrbpq_1
*I *1820:CLK I *D sg13cmos5l_dfrbpq_1
*I *1853:X O *D sg13cmos5l_buf_8
*CAP
1 *1827:CLK 0
2 *1829:CLK 0
3 *1830:CLK 0.000642991
4 *1811:CLK 0
5 *1823:CLK 0
6 *1822:CLK 0
7 *1820:CLK 0.0010586
8 *1853:X 0
9 *563:98 0.000974823
10 *563:83 0.0017786
11 *563:59 0.00118287
12 *563:50 0.000755996
13 *563:32 0.00183902
14 *563:26 0.00152883
15 *563:22 0.00208374
16 *563:4 0.001923
17 *1820:CLK *1919:A 0
18 *1830:CLK *1512:A 0.000240957
19 *1830:CLK *625:10 0
20 *1830:CLK *637:41 0
21 *1830:CLK *754:50 8.00842e-05
22 *563:22 *1558:A 0.000144451
23 *563:26 *570:14 0.000502704
24 *563:26 *706:36 0.00215375
25 *563:32 *570:14 7.51285e-05
26 *563:32 *570:18 4.77425e-05
27 *563:32 *594:69 0.00141041
28 *563:32 *643:107 0.000453975
29 *563:32 *671:59 0
30 *563:32 *706:36 0
31 *563:50 *706:36 0.000556238
32 *563:59 *1811:RESET_B 0.000558293
33 *563:59 *586:101 0
34 *563:59 *594:35 0
35 *563:59 *637:41 0
36 *563:59 *706:36 0.000342449
37 *563:83 *1552:A 0
38 *563:83 *1568:C 0
39 *563:83 *585:56 0
40 *563:83 *630:134 0.000304577
41 *563:83 *759:12 0
42 *563:83 *759:38 0
43 *563:98 *1751:A_N 1.54008e-05
44 *563:98 *585:56 0
45 *563:98 *712:35 0.000236844
46 *1308:B1 *1820:CLK 0
47 *1312:A2 *563:32 0
48 *1479:B1 *563:98 6.49026e-05
49 *1583:A *563:22 0.0001444
50 *1608:A *563:83 0
51 *1689:B1 *1820:CLK 0
52 *1707:B *1820:CLK 0
53 *1715:B *1820:CLK 0
54 *1724:B1 *563:32 0
55 *1730:A2 *563:22 0.00017634
56 *1751:B *563:98 0
57 *1753:A1 *563:98 0
58 *1753:A2 *563:98 0.000209505
59 *1757:B *1830:CLK 0.00026645
60 *1757:B *563:59 0.000289003
61 *1775:CLK *1820:CLK 0
62 *1915:A *563:50 0
63 *1915:A *563:59 0
64 *24:16 *563:98 0.000129135
65 *35:14 *1820:CLK 0
66 *37:12 *1820:CLK 0
67 *39:10 *1820:CLK 0.000240691
68 *39:10 *563:32 7.51285e-05
69 *51:6 *563:22 0
70 *74:10 *563:98 0.00087464
71 *130:12 *563:32 0.00135578
72 *131:10 *563:32 0
73 *287:31 *563:98 0.000273864
74 *308:26 *1830:CLK 0.000208736
75 *308:37 *1830:CLK 0.000887206
76 *308:72 *563:98 0
77 *314:14 *563:22 0
78 *314:23 *563:22 0
79 *314:29 *563:26 0
80 *314:29 *563:50 0
81 *358:20 *563:83 0
82 *361:14 *563:22 0
83 *362:6 *563:22 0
84 *362:6 *563:83 0
85 *362:29 *563:22 0
86 *371:10 *563:83 0
87 *382:34 *1820:CLK 0
88 *386:19 *563:83 0
89 *410:71 *563:83 0
90 *410:71 *563:98 0
91 *520:20 *563:22 0
92 *521:14 *563:98 0
93 *538:16 *563:98 8.00842e-05
94 *562:12 *1820:CLK 0
95 *562:19 *1820:CLK 0
*RES
1 *1853:X *563:4 20 
2 *563:4 *563:22 30.094 
3 *563:22 *563:26 29.991 
4 *563:26 *563:32 32.0098 
5 *563:32 *1820:CLK 49.353 
6 *563:26 *1822:CLK 20 
7 *563:22 *563:50 2.575 
8 *563:50 *1823:CLK 40 
9 *563:50 *563:59 7.0246 
10 *563:59 *1811:CLK 40 
11 *563:59 *1830:CLK 48.3018 
12 *563:4 *563:83 27.5602 
13 *563:83 *1829:CLK 40 
14 *563:83 *563:98 31.8656 
15 *563:98 *1827:CLK 20 
*END

*D_NET *564 0.0105038
*CONN
*I *1808:CLK I *D sg13cmos5l_dfrbpq_1
*I *1826:CLK I *D sg13cmos5l_dfrbpq_1
*I *1825:CLK I *D sg13cmos5l_dfrbpq_1
*I *1809:CLK I *D sg13cmos5l_dfrbpq_1
*I *1812:CLK I *D sg13cmos5l_dfrbpq_1
*I *1763:CLK I *D sg13cmos5l_dfrbpq_1
*I *1764:CLK I *D sg13cmos5l_dfrbpq_1
*I *1854:X O *D sg13cmos5l_buf_8
*CAP
1 *1808:CLK 0.000283363
2 *1826:CLK 0.000348914
3 *1825:CLK 0
4 *1809:CLK 2.77263e-05
5 *1812:CLK 0
6 *1763:CLK 0
7 *1764:CLK 0.000210187
8 *1854:X 0.000197552
9 *564:48 0.000374344
10 *564:22 0.000570421
11 *564:20 0.000956691
12 *564:18 0.00102779
13 *564:12 0.00111039
14 *564:6 0.00116227
15 *1764:CLK *1261:A 0
16 *1764:CLK *674:43 0
17 *1764:CLK *674:45 0
18 *1809:CLK *1741:A 0
19 *1826:CLK *682:14 0
20 *564:12 *636:33 0
21 *564:12 *656:64 0.000553978
22 *564:12 *660:48 0
23 *564:12 *674:113 0.000341621
24 *564:12 *701:8 0
25 *564:18 *1741:A 8.02379e-05
26 *564:20 *1940:A 0.000258029
27 *564:20 *674:26 0
28 *564:20 *690:10 0.000208747
29 *564:22 *1261:A 0
30 *564:22 *1261:B 0
31 *564:22 *1940:A 8.00842e-05
32 *564:22 *674:43 0
33 *564:22 *690:10 0.000565385
34 *1493:B *564:20 0
35 *1741:B *564:18 0
36 *1847:A *564:6 0
37 *1975:A *564:18 0
38 *4:38 *1764:CLK 0
39 *193:12 *1826:CLK 0
40 *193:22 *564:12 0
41 *193:22 *564:18 0
42 *193:33 *564:12 0
43 *258:27 *1808:CLK 0
44 *258:27 *564:6 0
45 *258:39 *564:20 0
46 *292:16 *564:12 0.00034112
47 *299:16 *1826:CLK 0.000564823
48 *299:16 *564:18 0.000565311
49 *299:16 *564:20 0
50 *299:16 *564:48 0
51 *529:10 *1826:CLK 0.000339245
52 *529:10 *564:18 0
53 *529:10 *564:48 4.78195e-05
54 *546:21 *564:6 0
55 *547:15 *564:20 0
56 *557:8 *564:12 0.000287758
*RES
1 *1854:X *564:6 21.6171 
2 *564:6 *564:12 49.2494 
3 *564:12 *564:18 4.4805 
4 *564:18 *564:20 5.4452 
5 *564:20 *564:22 3.9964 
6 *564:22 *1764:CLK 22.266 
7 *564:22 *1763:CLK 20 
8 *564:20 *1812:CLK 20 
9 *564:18 *1809:CLK 20.3502 
10 *564:12 *564:48 0.3193 
11 *564:48 *1825:CLK 20 
12 *564:48 *1826:CLK 23.9964 
13 *564:6 *1808:CLK 22.4823 
*END

*D_NET *565 0.0140869
*CONN
*I *1779:CLK I *D sg13cmos5l_dfrbpq_1
*I *1778:CLK I *D sg13cmos5l_dfrbpq_1
*I *1777:CLK I *D sg13cmos5l_dfrbpq_1
*I *1793:CLK I *D sg13cmos5l_dfrbpq_1
*I *1792:CLK I *D sg13cmos5l_dfrbpq_1
*I *1791:CLK I *D sg13cmos5l_dfrbpq_1
*I *1810:CLK I *D sg13cmos5l_dfrbpq_1
*I *1855:X O *D sg13cmos5l_buf_8
*CAP
1 *1779:CLK 0.000222899
2 *1778:CLK 0
3 *1777:CLK 7.24409e-05
4 *1793:CLK 0.000260374
5 *1792:CLK 0.000115827
6 *1791:CLK 0
7 *1810:CLK 0
8 *1855:X 0.000201817
9 *565:71 0.00058854
10 *565:60 0.000631386
11 *565:47 0.000940451
12 *565:34 0.000747987
13 *565:18 0.000987946
14 *565:12 0.00125382
15 *565:10 0.00061308
16 *1777:CLK *582:10 0
17 *1777:CLK *651:22 0.000112558
18 *1779:CLK *651:22 0.000324129
19 *1779:CLK *667:10 0
20 *1792:CLK *678:49 0
21 *1793:CLK *1779:RESET_B 0.000355055
22 *1793:CLK *679:12 1.54008e-05
23 *565:10 *641:28 0.000209648
24 *565:12 *626:12 0
25 *565:12 *678:53 0
26 *565:18 *1356:A 0
27 *565:18 *656:26 0
28 *565:18 *658:43 0
29 *565:18 *658:49 0
30 *565:18 *678:53 0
31 *565:18 *765:11 0
32 *565:18 *765:13 0
33 *565:18 *765:31 0
34 *565:34 *1961:A 4.77425e-05
35 *565:34 *678:49 0
36 *565:47 *581:8 0.00124643
37 *565:47 *678:69 0.00193863
38 *565:60 *1777:RESET_B 0.000426955
39 *565:60 *678:69 0.000128248
40 *565:71 *582:10 0.000241127
41 *565:71 *651:22 0.000338585
42 *565:71 *667:10 0
43 *1419:B *565:10 0.000209648
44 *1464:B2 *1792:CLK 0.000112426
45 *1464:B2 *565:34 0.000241088
46 *191:12 *565:10 0.000234224
47 *191:12 *565:12 0.000820429
48 *191:12 *565:18 0.000448057
49 *196:24 *565:34 0
50 *202:10 *565:18 0
51 *202:16 *565:18 0
52 *202:85 *565:18 0
53 *262:10 *1793:CLK 0
54 *288:18 *565:18 0
*RES
1 *1855:X *565:10 42.4926 
2 *565:10 *565:12 3.811 
3 *565:12 *565:18 29.9092 
4 *565:18 *1810:CLK 20 
5 *565:12 *1791:CLK 40 
6 *565:10 *565:34 21.6171 
7 *565:34 *1792:CLK 21.1021 
8 *565:34 *565:47 29.0022 
9 *565:47 *1793:CLK 42.4823 
10 *565:47 *565:60 22.575 
11 *565:60 *1777:CLK 20.7519 
12 *565:60 *565:71 3.6977 
13 *565:71 *1778:CLK 20 
14 *565:71 *1779:CLK 22.266 
*END

*D_NET *566 0.0158456
*CONN
*I *1787:CLK I *D sg13cmos5l_dfrbpq_1
*I *1788:CLK I *D sg13cmos5l_dfrbpq_1
*I *1789:CLK I *D sg13cmos5l_dfrbpq_1
*I *1831:CLK I *D sg13cmos5l_dfrbpq_1
*I *1790:CLK I *D sg13cmos5l_dfrbpq_1
*I *1828:CLK I *D sg13cmos5l_dfrbpq_1
*I *1807:CLK I *D sg13cmos5l_dfrbpq_1
*I *1856:X O *D sg13cmos5l_buf_8
*CAP
1 *1787:CLK 0.000400284
2 *1788:CLK 0
3 *1789:CLK 0
4 *1831:CLK 0
5 *1790:CLK 2.36489e-05
6 *1828:CLK 0.000408866
7 *1807:CLK 0.00094893
8 *1856:X 0
9 *566:43 0.00084756
10 *566:41 0.000947324
11 *566:35 0.00139434
12 *566:29 0.00101287
13 *566:27 0.00127152
14 *566:4 0.00166936
15 *1787:CLK *730:8 0
16 *1807:CLK *595:59 0
17 *1807:CLK *731:30 0.000240739
18 *1828:CLK *1828:RESET_B 1.5412e-05
19 *1828:CLK *676:31 0
20 *1828:CLK *676:38 0
21 *1828:CLK *682:14 0
22 *566:27 *1343:B 0
23 *566:27 *1346:A 0
24 *566:27 *1348:A1 0
25 *566:27 *1348:B1 4.78521e-05
26 *566:27 *703:12 0
27 *566:27 *731:30 0
28 *566:29 *1348:A1 0
29 *566:35 *682:14 0
30 *566:35 *704:12 0.000555408
31 *566:41 *682:14 0
32 *566:43 *676:38 0
33 *566:43 *682:14 0
34 *1415:B_N *566:27 0
35 *1449:B *1807:CLK 0.000143728
36 *1462:A2 *566:27 0
37 *1463:A *566:27 3.8463e-05
38 *1478:B *1807:CLK 0
39 *1495:A2 *1807:CLK 0.000177178
40 *1506:B *566:35 0
41 *1506:B *566:41 0.000169457
42 *1506:B *566:43 0.000176293
43 *3:9 *566:35 0
44 *3:23 *1807:CLK 0
45 *155:10 *1787:CLK 0.000340791
46 *155:10 *566:29 0.000501874
47 *155:10 *566:35 5.30319e-05
48 *155:16 *566:35 0.00188527
49 *155:36 *1787:CLK 0.00106645
50 *156:14 *566:27 0
51 *158:10 *566:27 7.93426e-05
52 *159:8 *566:35 0
53 *221:16 *566:27 0
54 *221:27 *1787:CLK 0.000608855
55 *258:27 *1807:CLK 0.000629064
56 *287:10 *1807:CLK 0.000191684
57 *299:16 *1828:CLK 0
58 *300:24 *1828:CLK 0
59 *542:12 *566:35 0
60 *544:174 *1807:CLK 0
61 *559:8 *566:43 0
*RES
1 *1856:X *566:4 20 
2 *566:4 *1807:CLK 30.0322 
3 *566:4 *566:27 26.4272 
4 *566:27 *566:29 2.3278 
5 *566:29 *566:35 30.8356 
6 *566:35 *566:41 4.4496 
7 *566:41 *566:43 3.9964 
8 *566:43 *1828:CLK 24.3466 
9 *566:43 *1790:CLK 20.3502 
10 *566:41 *1831:CLK 20 
11 *566:35 *1789:CLK 20 
12 *566:29 *1788:CLK 40 
13 *566:27 *1787:CLK 46.5302 
*END

*D_NET *567 0.010042
*CONN
*I *1783:CLK I *D sg13cmos5l_dfrbpq_1
*I *1782:CLK I *D sg13cmos5l_dfrbpq_1
*I *1781:CLK I *D sg13cmos5l_dfrbpq_1
*I *1780:CLK I *D sg13cmos5l_dfrbpq_1
*I *1785:CLK I *D sg13cmos5l_dfrbpq_1
*I *1784:CLK I *D sg13cmos5l_dfrbpq_1
*I *1786:CLK I *D sg13cmos5l_dfrbpq_1
*I *1857:X O *D sg13cmos5l_buf_8
*CAP
1 *1783:CLK 0
2 *1782:CLK 0
3 *1781:CLK 0
4 *1780:CLK 0.00044283
5 *1785:CLK 0
6 *1784:CLK 0.00022139
7 *1786:CLK 0.000220345
8 *1857:X 0.00057711
9 *567:51 0.000833924
10 *567:47 0.000628589
11 *567:43 0.00116183
12 *567:21 0.00022139
13 *567:19 0.00146523
14 *567:8 0.00133835
15 *1780:CLK *651:22 0
16 *1784:CLK *1785:RESET_B 0
17 *1784:CLK *651:28 0
18 *1784:CLK *739:41 0.000144089
19 *1786:CLK *739:51 0
20 *567:8 *1336:A 0
21 *567:8 *1337:A 0
22 *567:8 *592:6 0
23 *567:8 *641:48 0
24 *567:8 *740:10 0
25 *567:19 *739:41 0
26 *567:43 *1330:A 0
27 *567:43 *1784:RESET_B 0.000112426
28 *567:43 *651:28 0.00012816
29 *567:43 *739:14 0
30 *567:47 *651:28 0
31 *567:51 *1954:A 0
32 *567:51 *601:10 0
33 *567:51 *651:22 0.000307051
34 *567:51 *651:28 0
35 *1332:C *567:43 8.01609e-05
36 *1336:B *567:8 0.000531537
37 *1472:A1 *567:8 0
38 *1784:D *567:43 0
39 *1784:D *567:47 0.000274189
40 *1994:A *1784:CLK 0
41 *22:10 *1786:CLK 0.000502289
42 *22:10 *567:8 0
43 *22:10 *567:19 0.000851089
44 *142:8 *1780:CLK 0
45 *142:8 *567:51 0
46 *146:10 *567:43 0
47 *261:10 *1780:CLK 0
48 *281:14 *567:8 0
*RES
1 *1857:X *567:8 45.2942 
2 *567:8 *1786:CLK 43.3166 
3 *567:8 *567:19 7.2718 
4 *567:19 *567:21 20 
5 *567:21 *1784:CLK 22.1836 
6 *567:21 *1785:CLK 20 
7 *567:19 *567:43 28.652 
8 *567:43 *567:47 2.6162 
9 *567:47 *567:51 4.3466 
10 *567:51 *1780:CLK 23.9964 
11 *567:51 *1781:CLK 20 
12 *567:47 *1782:CLK 20 
13 *567:43 *1783:CLK 20 
*END

*D_NET *568 0.000474797
*CONN
*I *1952:A I *D sg13cmos5l_dlygate4sd3_1
*I *1811:Q O *D sg13cmos5l_dfrbpq_1
*CAP
1 *1952:A 0.000237399
2 *1811:Q 0.000237399
3 *1952:A *702:16 0
*RES
1 *1811:Q *1952:A 42.8634 
*END

*D_NET *569 0.00303721
*CONN
*I *1703:B1 I *D sg13cmos5l_a21oi_1
*I *1958:A I *D sg13cmos5l_dlygate4sd3_1
*I *1821:Q O *D sg13cmos5l_dfrbpq_1
*CAP
1 *1703:B1 0.000303328
2 *1958:A 4.6638e-05
3 *1821:Q 0.000514548
4 *569:14 0.000220599
5 *569:8 0.000991837
6 *1703:B1 *645:16 0
7 *1958:A *706:48 4.77425e-05
8 *569:8 *644:64 0
9 *569:14 *706:54 0
10 *1704:A1 *1703:B1 0.00017616
11 *1704:A2 *1703:B1 0
12 *1705:B *569:8 0.000341119
13 *373:51 *1958:A 0
14 *383:8 *569:8 0.000395234
15 *495:24 *569:14 0
16 *509:18 *1958:A 0
*RES
1 *1821:Q *569:8 44.7998 
2 *569:8 *569:14 41.6171 
3 *569:14 *1958:A 40.5356 
4 *569:8 *1703:B1 42.7501 
*END

*D_NET *570 0.00576492
*CONN
*I *1876:A I *D sg13cmos5l_buf_1
*I *1725:A1 I *D sg13cmos5l_a21oi_1
*I *1585:B I *D sg13cmos5l_nor2_1
*I *1713:A I *D sg13cmos5l_xnor2_1
*I *1822:Q O *D sg13cmos5l_dfrbpq_1
*CAP
1 *1876:A 0
2 *1725:A1 0
3 *1585:B 0
4 *1713:A 0.000234871
5 *1822:Q 0.000278456
6 *570:55 0.000695118
7 *570:39 0.000957712
8 *570:22 0.000606723
9 *570:18 0.000328157
10 *570:14 0.000497354
11 *1713:A *684:104 0.00017634
12 *570:14 *594:69 0
13 *570:22 *643:12 0
14 *570:22 *684:104 0
15 *570:39 *1722:A1 0.000111657
16 *570:55 *1865:A 0.000112108
17 *570:55 *642:44 0
18 *1560:B *570:55 0
19 *1721:B1 *570:39 0
20 *1721:B1 *570:55 4.78192e-05
21 *1721:A2 *570:39 0
22 *1721:A2 *570:55 0
23 *1724:B1 *570:18 0
24 *1725:B1 *570:55 0.00023464
25 *84:10 *1713:A 0.000288588
26 *84:10 *570:39 0.000318935
27 *314:29 *570:14 0.00023547
28 *516:18 *570:55 1.54008e-05
29 *520:14 *570:55 0
30 *563:26 *570:14 0.000502704
31 *563:32 *570:14 7.51285e-05
32 *563:32 *570:18 4.77425e-05
*RES
1 *1822:Q *570:14 43.8419 
2 *570:14 *570:18 21.8334 
3 *570:18 *570:22 20.9682 
4 *570:22 *1713:A 42.5235 
5 *570:22 *570:39 22.7707 
6 *570:39 *570:55 46.489 
7 *570:55 *1585:B 20 
8 *570:39 *1725:A1 20 
9 *570:18 *1876:A 20 
*END

*D_NET *571 0.0110824
*CONN
*I *1940:A I *D sg13cmos5l_dlygate4sd3_1
*I *1572:A I *D sg13cmos5l_nor3_1
*I *1604:B1 I *D sg13cmos5l_o21ai_1
*I *1534:B I *D sg13cmos5l_nand2_1
*I *1573:B I *D sg13cmos5l_nor4_1
*I *1812:Q O *D sg13cmos5l_dfrbpq_1
*CAP
1 *1940:A 0.000220833
2 *1572:A 3.23073e-05
3 *1604:B1 0.000142451
4 *1534:B 3.33443e-05
5 *1573:B 0
6 *1812:Q 0.000136537
7 *571:39 0.000791378
8 *571:31 0.000997383
9 *571:20 0.000206217
10 *571:16 0.00093488
11 *571:8 0.00115062
12 *1604:B1 *1604:A1 0.00017635
13 *1940:A *674:26 0
14 *571:16 *1572:B 0.000128952
15 *571:16 *572:27 0
16 *571:16 *586:64 0
17 *571:16 *619:101 0
18 *571:16 *635:78 0.00018381
19 *571:16 *635:88 0
20 *571:20 *1573:A 6.16032e-06
21 *571:31 *1573:A 3.8502e-05
22 *571:31 *1604:A1 0
23 *571:31 *572:37 0.000129069
24 *571:39 *635:8 0.000235807
25 *571:39 *635:14 7.47964e-05
26 *571:39 *635:65 0.000278486
27 *571:39 *660:83 0.000538511
28 *1498:A *1534:B 0
29 *1498:B *1534:B 0
30 *1615:B *1604:B1 0
31 *85:16 *571:16 0
32 *86:22 *571:16 0
33 *163:97 *571:8 0.00068983
34 *163:97 *571:16 0.00129952
35 *203:18 *571:39 0
36 *306:14 *571:16 0
37 *306:20 *571:8 0.000711927
38 *306:20 *571:16 0.000714834
39 *312:64 *571:39 0
40 *372:132 *1534:B 0
41 *405:8 *571:16 0.000447326
42 *406:16 *1604:B1 3.66718e-05
43 *416:20 *571:39 0.000407774
44 *564:20 *1940:A 0.000258029
45 *564:22 *1940:A 8.00842e-05
*RES
1 *1812:Q *571:8 43.3166 
2 *571:8 *571:16 31.1549 
3 *571:16 *571:20 1.1639 
4 *571:20 *1573:B 20 
5 *571:20 *571:31 21.133 
6 *571:31 *571:39 48.5799 
7 *571:39 *1534:B 40.3193 
8 *571:31 *1604:B1 41.4008 
9 *571:16 *1572:A 20.3193 
10 *571:8 *1940:A 42.266 
*END

*D_NET *572 0.00727969
*CONN
*I *1573:A I *D sg13cmos5l_nor4_1
*I *1534:A I *D sg13cmos5l_nand2_1
*I *1939:A I *D sg13cmos5l_dlygate4sd3_1
*I *1813:Q O *D sg13cmos5l_dfrbpq_1
*CAP
1 *1573:A 2.65418e-05
2 *1534:A 0
3 *1939:A 0
4 *1813:Q 0.000217117
5 *572:37 0.000901243
6 *572:29 0.000927785
7 *572:27 0.00061636
8 *572:12 0.000999282
9 *572:8 0.00060004
10 *572:8 *655:42 0
11 *572:8 *681:10 0
12 *572:8 *716:8 0
13 *572:12 *611:10 0
14 *572:12 *655:42 0
15 *572:12 *655:48 0
16 *572:27 *1572:B 0
17 *572:27 *1612:A2 0.000449669
18 *572:27 *586:36 0.000128307
19 *572:27 *635:88 0.000501078
20 *572:27 *655:69 0
21 *572:37 *635:57 0.000799985
22 *572:37 *635:65 7.65602e-05
23 *572:37 *635:78 0.000182463
24 *572:37 *660:83 0
25 *572:37 *672:105 0
26 *1310:A *572:12 0
27 *1988:A *572:12 0
28 *81:42 *572:27 0.000127594
29 *92:20 *572:37 0.000191149
30 *163:97 *572:27 0.000181799
31 *312:64 *572:27 0.000178985
32 *336:10 *572:12 0
33 *571:16 *572:27 0
34 *571:20 *1573:A 6.16032e-06
35 *571:31 *1573:A 3.8502e-05
36 *571:31 *572:37 0.000129069
*RES
1 *1813:Q *572:8 42.3278 
2 *572:8 *572:12 23.3475 
3 *572:12 *1939:A 20 
4 *572:12 *572:27 47.3851 
5 *572:27 *572:29 20 
6 *572:29 *572:37 49.2597 
7 *572:37 *1534:A 40 
8 *572:29 *1573:A 40.2575 
*END

*D_NET *573 0.0125887
*CONN
*I *1566:A I *D sg13cmos5l_nor2_1
*I *1587:A I *D sg13cmos5l_xnor2_1
*I *1886:A I *D sg13cmos5l_buf_1
*I *1984:A I *D sg13cmos5l_dlygate4sd3_1
*I *1814:Q O *D sg13cmos5l_dfrbpq_1
*CAP
1 *1566:A 0.000654305
2 *1587:A 0
3 *1886:A 0
4 *1984:A 0.000314456
5 *1814:Q 0.000343846
6 *573:65 0.00134266
7 *573:48 0.00086357
8 *573:37 0.00136055
9 *573:31 0.00238483
10 *573:10 0.00150737
11 *1566:A *630:87 0
12 *1566:A *654:146 0
13 *1984:A *695:26 0.00023464
14 *1984:A *714:18 0
15 *573:10 *1263:A 0
16 *573:10 *672:94 0
17 *573:10 *695:26 0.000395897
18 *573:10 *714:18 0.000129595
19 *573:31 *1574:B 0
20 *573:31 *1942:A 0
21 *573:37 *1259:A 0
22 *573:37 *585:39 0
23 *573:37 *677:53 0
24 *573:48 *1574:B 4.76345e-05
25 *573:48 *637:10 0
26 *573:48 *677:53 0
27 *573:65 *637:10 7.94353e-05
28 *573:65 *675:8 0
29 *573:65 *675:14 0
30 *573:65 *677:36 0.000129273
31 *1538:A1 *573:48 0
32 *1575:A *573:31 0.000144768
33 *1590:B1 *573:65 0
34 *1592:B1 *1566:A 0.000208615
35 *1592:A2 *1566:A 0
36 *1625:A1 *573:31 4.78521e-05
37 *1639:A *573:37 0.000144632
38 *1649:B_N *573:65 0
39 *1654:A *1566:A 4.78521e-05
40 *1662:A2 *1566:A 0.000240459
41 *1662:B1 *1566:A 0
42 *1666:C *1566:A 0
43 *80:18 *573:37 0.000183707
44 *80:18 *573:48 0.000214913
45 *93:24 *573:10 0
46 *94:16 *573:10 0.000129595
47 *99:12 *573:10 0.000177032
48 *203:18 *573:65 7.52149e-05
49 *341:30 *573:37 3.24351e-05
50 *342:33 *573:65 0.000287501
51 *343:8 *573:37 0
52 *345:8 *573:37 0
53 *347:51 *573:65 0
54 *365:88 *573:37 0.000240421
55 *365:96 *573:37 8.0216e-05
56 *377:8 *573:31 0
57 *378:28 *573:37 0.000449918
58 *392:24 *573:37 0
59 *393:10 *1566:A 1.54008e-05
60 *395:8 *1566:A 0
61 *416:34 *573:65 0
62 *417:14 *573:65 0
63 *425:10 *1984:A 0
64 *425:10 *573:31 0
65 *544:96 *573:31 0
66 *561:10 *1984:A 0
67 *561:10 *573:31 0
68 *561:16 *573:31 8.00842e-05
*RES
1 *1814:Q *573:10 44.2539 
2 *573:10 *1984:A 43.3578 
3 *573:10 *573:31 47.356 
4 *573:31 *573:37 32.9059 
5 *573:37 *1886:A 20 
6 *573:31 *573:48 22.06 
7 *573:48 *1587:A 20 
8 *573:48 *573:65 46.7774 
9 *573:65 *1566:A 26.3242 
*END

*D_NET *574 0.0105838
*CONN
*I *1973:A I *D sg13cmos5l_dlygate4sd3_1
*I *1568:B I *D sg13cmos5l_nand4_1
*I *1885:A I *D sg13cmos5l_buf_1
*I *1815:Q O *D sg13cmos5l_dfrbpq_1
*CAP
1 *1973:A 0
2 *1568:B 0.000422591
3 *1885:A 0
4 *1815:Q 0.000202172
5 *574:43 0.00115823
6 *574:22 0.000576921
7 *574:14 0.00270174
8 *574:12 0.00138918
9 *574:8 0.000202172
10 *1568:B *1568:C 4.78192e-05
11 *574:14 *608:57 0
12 *574:14 *612:45 0
13 *574:14 *654:134 0
14 *574:22 *575:31 0.000128309
15 *574:22 *706:77 0
16 *574:22 *756:26 0
17 *574:43 *1520:B 0.000177345
18 *574:43 *1546:A 0
19 *574:43 *649:87 0.00082154
20 *1523:A *574:22 0.000342462
21 *1555:B1 *1568:B 0.000246154
22 *1555:B1 *574:43 0
23 *1555:A2 *574:43 0
24 *80:42 *574:8 8.00842e-05
25 *83:14 *574:22 4.79124e-05
26 *323:10 *1568:B 0
27 *323:10 *574:43 0
28 *323:23 *1568:B 0.00024116
29 *332:14 *574:22 0.000983937
30 *353:38 *574:43 0.000766241
31 *371:10 *1568:B 0
32 *392:16 *574:14 0
33 *392:35 *574:14 0
34 *395:8 *574:43 0
35 *411:20 *574:14 0
36 *447:16 *574:14 0
37 *465:14 *574:22 0
38 *477:10 *574:22 4.7803e-05
39 *544:21 *574:14 0
40 *544:68 *574:14 0
*RES
1 *1815:Q *574:8 21.9673 
2 *574:8 *574:12 40 
3 *574:12 *574:14 12.8504 
4 *574:14 *574:22 47.0967 
5 *574:22 *1885:A 20 
6 *574:14 *574:43 49.6414 
7 *574:43 *1568:B 24.6865 
8 *574:8 *1973:A 20 
*END

*D_NET *575 0.00519662
*CONN
*I *1883:A I *D sg13cmos5l_buf_1
*I *1945:A I *D sg13cmos5l_dlygate4sd3_1
*I *1816:Q O *D sg13cmos5l_dfrbpq_1
*CAP
1 *1883:A 4.98295e-05
2 *1945:A 3.23687e-05
3 *1816:Q 0.000409812
4 *575:31 0.00119849
5 *575:25 0.00148113
6 *575:8 0.00077465
7 *1883:A *650:12 8.00842e-05
8 *575:25 *1235:A 0.000107001
9 *575:25 *1259:A 0
10 *575:25 *653:68 2.25909e-05
11 *575:25 *706:101 1.54008e-05
12 *575:31 *585:56 0
13 *575:31 *650:36 0
14 *1639:A *575:25 4.77425e-05
15 *311:53 *1883:A 0
16 *332:14 *575:31 0
17 *365:128 *575:31 0.000462659
18 *372:22 *575:31 0.000129019
19 *437:22 *575:25 0.00012816
20 *437:22 *575:31 0
21 *465:14 *575:31 0.000129368
22 *574:22 *575:31 0.000128309
*RES
1 *1816:Q *575:8 23.5741 
2 *575:8 *1945:A 20.3502 
3 *575:8 *575:25 43.4299 
4 *575:25 *575:31 31.5154 
5 *575:31 *1883:A 40.5356 
*END

*D_NET *576 0.0129567
*CONN
*I *1547:A I *D sg13cmos5l_xor2_1
*I *1546:A I *D sg13cmos5l_nand2_1
*I *1567:B I *D sg13cmos5l_nand4_1
*I *1959:A I *D sg13cmos5l_dlygate4sd3_1
*I *1817:Q O *D sg13cmos5l_dfrbpq_1
*CAP
1 *1547:A 0.000324404
2 *1546:A 0.000313064
3 *1567:B 0
4 *1959:A 5.73819e-05
5 *1817:Q 0.000252249
6 *576:48 0.00154557
7 *576:33 0.00195112
8 *576:8 0.00135265
9 *1546:A *1520:A 0
10 *1546:A *1520:B 0
11 *1546:A *1524:B 0
12 *1546:A *630:102 7.90195e-05
13 *1547:A *1525:B 0.000144441
14 *1547:A *1525:C 0
15 *1547:A *635:22 0
16 *1547:A *649:87 0.000396619
17 *1547:A *677:30 0
18 *1547:A *757:14 0
19 *576:8 *654:18 0.000343619
20 *576:33 *1259:A 0
21 *576:33 *1567:A 7.9046e-05
22 *576:33 *1658:A1 0
23 *576:33 *612:53 8.00842e-05
24 *576:33 *654:10 0.000719808
25 *576:33 *654:18 0.000533163
26 *576:33 *706:136 0
27 *576:33 *756:36 0.000144768
28 *576:48 *1567:D 0
29 *576:48 *1866:A 0
30 *576:48 *608:10 0
31 *576:48 *635:22 0
32 *576:48 *649:87 0.00226843
33 *576:48 *756:36 0
34 *1523:A *576:48 0.000112601
35 *1523:B *576:48 0.000144231
36 *1546:B *1546:A 0
37 *1663:A2 *576:33 0
38 *1666:C *1546:A 0
39 *1666:A *1546:A 4.77534e-05
40 *62:16 *576:33 0
41 *311:53 *576:48 0
42 *326:12 *576:48 0
43 *342:18 *576:48 0.00172857
44 *349:6 *1546:A 0.000193653
45 *351:8 *576:48 0
46 *365:88 *576:33 0
47 *371:16 *1547:A 0.000144441
48 *394:14 *576:48 0
49 *457:8 *576:8 0
50 *544:21 *576:33 0
51 *544:31 *576:33 0
52 *560:8 *576:8 0
53 *560:8 *576:33 0
54 *574:43 *1546:A 0
*RES
1 *1817:Q *576:8 42.575 
2 *576:8 *1959:A 40.6386 
3 *576:8 *576:33 31.6493 
4 *576:33 *1567:B 20 
5 *576:33 *576:48 34.2861 
6 *576:48 *1546:A 43.1312 
7 *576:48 *1547:A 43.5432 
*END

*D_NET *577 0.00297846
*CONN
*I *1567:C I *D sg13cmos5l_nand4_1
*I *1671:A I *D sg13cmos5l_xnor2_1
*I *1956:A I *D sg13cmos5l_dlygate4sd3_1
*I *1818:Q O *D sg13cmos5l_dfrbpq_1
*CAP
1 *1567:C 0.000494001
2 *1671:A 2.53663e-05
3 *1956:A 0.000293269
4 *1818:Q 9.39074e-05
5 *577:21 0.000938601
6 *577:10 0.000806409
7 *1567:C *608:10 0
8 *1567:C *608:16 0
9 *1567:C *649:113 0
10 *577:10 *649:62 0
11 *577:21 *649:62 0
12 *577:21 *653:10 0
13 *1664:B1 *1671:A 4.78195e-05
14 *1682:A *1567:C 0.000183355
15 *342:12 *1956:A 0
16 *342:12 *577:10 4.79124e-05
17 *346:14 *1567:C 0
18 *411:43 *1956:A 0
19 *411:43 *577:10 0
20 *454:17 *1671:A 4.78195e-05
21 *468:10 *1567:C 0
22 *468:10 *577:21 0
*RES
1 *1818:Q *577:10 40.9167 
2 *577:10 *1956:A 42.4823 
3 *577:10 *577:21 3.5638 
4 *577:21 *1671:A 40.3193 
5 *577:21 *1567:C 44.3775 
*END

*D_NET *578 0.0100973
*CONN
*I *1553:A I *D sg13cmos5l_xnor2_1
*I *1567:D I *D sg13cmos5l_nand4_1
*I *1957:A I *D sg13cmos5l_dlygate4sd3_1
*I *1819:Q O *D sg13cmos5l_dfrbpq_1
*CAP
1 *1553:A 0.000729436
2 *1567:D 0.00012989
3 *1957:A 0.000112908
4 *1819:Q 0.000285932
5 *578:44 0.00119661
6 *578:27 0.000464056
7 *578:21 0.00140752
8 *578:10 0.00100502
9 *1553:A *585:56 0
10 *1553:A *711:22 0
11 *1553:A *717:119 0.000875469
12 *1567:D *608:10 0
13 *1957:A *1579:A 0
14 *578:10 *647:50 0.000129089
15 *578:10 *717:16 0
16 *578:21 *647:50 0.000661652
17 *578:21 *647:74 0.000958991
18 *578:21 *648:110 0
19 *578:21 *649:87 0
20 *578:21 *699:20 0
21 *578:21 *717:16 0
22 *578:21 *717:76 0
23 *578:27 *699:12 0.00047433
24 *578:27 *706:77 0.000212016
25 *578:44 *647:74 0.00028868
26 *578:44 *648:110 0
27 *1579:C *1957:A 0.000176861
28 *1681:A2 *578:44 0.000209374
29 *1689:B1 *578:10 0
30 *1692:B *578:44 0
31 *1694:A2 *578:44 0
32 *35:22 *578:10 7.9706e-05
33 *311:53 *578:44 0
34 *324:12 *1553:A 0.000128408
35 *365:75 *578:27 0
36 *394:14 *1567:D 4.78521e-05
37 *397:25 *1553:A 0.000395229
38 *410:16 *1553:A 0
39 *420:8 *1553:A 0
40 *420:12 *578:27 0
41 *427:8 *578:21 0
42 *483:10 *578:10 0.000128247
43 *544:43 *578:21 0
44 *576:48 *1567:D 0
*RES
1 *1819:Q *578:10 42.8634 
2 *578:10 *1957:A 41.1845 
3 *578:10 *578:21 7.519 
4 *578:21 *578:27 43.9964 
5 *578:27 *1567:D 41.1845 
6 *578:21 *578:44 44.6865 
7 *578:44 *1553:A 49.1464 
*END

*D_NET *579 0.00224591
*CONN
*I *1879:A I *D sg13cmos5l_buf_1
*I *1820:Q O *D sg13cmos5l_dfrbpq_1
*CAP
1 *1879:A 0
2 *1820:Q 0.000606854
3 *579:8 0.000606854
4 *579:8 *646:26 0
5 *579:8 *706:54 0.000321097
6 *579:8 *706:62 0.000131027
7 *410:16 *579:8 0
8 *476:10 *579:8 0
9 *484:16 *579:8 0.000396011
10 *494:20 *579:8 0.000184065
11 *562:8 *579:8 0
*RES
1 *1820:Q *579:8 46.7774 
2 *579:8 *1879:A 40 
*END

*D_NET *580 0.000206185
*CONN
*I *1961:A I *D sg13cmos5l_dlygate4sd3_1
*I *1791:Q O *D sg13cmos5l_dfrbpq_1
*CAP
1 *1961:A 7.92211e-05
2 *1791:Q 7.92211e-05
3 *565:34 *1961:A 4.77425e-05
*RES
1 *1791:Q *1961:A 40.9167 
*END

*D_NET *581 0.00342566
*CONN
*I *1962:A I *D sg13cmos5l_dlygate4sd3_1
*I *1792:Q O *D sg13cmos5l_dfrbpq_1
*CAP
1 *1962:A 6.1037e-05
2 *1792:Q 0.00098854
3 *581:8 0.00104958
4 *1962:A *1313:B_N 8.00842e-05
5 *581:8 *678:53 0
6 *565:47 *581:8 0.00124643
*RES
1 *1792:Q *581:8 49.0022 
2 *581:8 *1962:A 40.5356 
*END

*D_NET *582 0.00193987
*CONN
*I *1937:A I *D sg13cmos5l_dlygate4sd3_1
*I *1793:Q O *D sg13cmos5l_dfrbpq_1
*CAP
1 *1937:A 0
2 *1793:Q 0.000432276
3 *582:10 0.000432276
4 *582:10 *1315:A 1.54008e-05
5 *582:10 *651:22 0
6 *582:10 *667:10 0.000531537
7 *1777:CLK *582:10 0
8 *137:16 *582:10 0.000287256
9 *565:71 *582:10 0.000241127
*RES
1 *1793:Q *582:10 44.9028 
2 *582:10 *1937:A 40 
*END

*D_NET *583 0.00569247
*CONN
*I *1966:A I *D sg13cmos5l_dlygate4sd3_1
*I *1515:B I *D sg13cmos5l_nand2b_1
*I *1244:A I *D sg13cmos5l_inv_1
*I *1830:Q O *D sg13cmos5l_dfrbpq_1
*CAP
1 *1966:A 7.37758e-05
2 *1515:B 0.000419171
3 *1244:A 0.000291118
4 *1830:Q 0.000300022
5 *583:23 0.000629443
6 *583:10 0.000727636
7 *1244:A *595:16 2.21342e-05
8 *1244:A *642:18 0
9 *1515:B *1515:A_N 0
10 *1515:B *1960:A 0.000207986
11 *1515:B *754:50 6.46834e-05
12 *1515:B *758:8 0
13 *1966:A *595:16 0.000106151
14 *1966:A *754:50 8.00842e-05
15 *583:10 *655:18 0.000337786
16 *583:23 *595:16 0.000586315
17 *1516:A1 *1966:A 0.00012816
18 *1516:A1 *583:23 0.000448427
19 *1516:B1 *1515:B 0
20 *1516:B1 *583:10 0
21 *1561:C1 *1244:A 8.00842e-05
22 *1967:A *583:10 0
23 *91:8 *1244:A 0.000396138
24 *307:91 *1244:A 0.00023616
25 *310:22 *1244:A 0.000557194
26 *319:10 *1244:A 0
*RES
1 *1830:Q *583:10 43.0797 
2 *583:10 *1244:A 44.3466 
3 *583:10 *583:23 2.8222 
4 *583:23 *1515:B 43.914 
5 *583:23 *1966:A 41.133 
*END

*D_NET *584 0.00563648
*CONN
*I *1517:A I *D sg13cmos5l_nand3_1
*I *1968:A I *D sg13cmos5l_dlygate4sd3_1
*I *1515:A_N I *D sg13cmos5l_nand2b_1
*I *1831:Q O *D sg13cmos5l_dfrbpq_1
*CAP
1 *1517:A 0.000120442
2 *1968:A 0.000854399
3 *1515:A_N 0.000234018
4 *1831:Q 0.000216726
5 *584:21 0.00139463
6 *584:10 0.000870534
7 *1515:A_N *1960:A 4.78359e-05
8 *1515:A_N *676:38 0
9 *1517:A *1831:RESET_B 4.78192e-05
10 *1968:A *1760:A1 0.000402137
11 *1968:A *1831:RESET_B 0
12 *1968:A *1925:A 0.000402137
13 *584:10 *1960:A 9.67457e-05
14 *584:21 *1985:A 0.000448012
15 *1515:B *1515:A_N 0
16 *1790:D *1515:A_N 0
17 *1849:A *1517:A 0
18 *3:15 *1517:A 0
19 *3:15 *1968:A 0
20 *157:27 *1968:A 0
21 *309:12 *584:21 0.000501044
22 *309:36 *1968:A 0
23 *310:18 *1517:A 0
24 *310:18 *584:21 0
25 *320:10 *1517:A 0
26 *320:10 *584:21 0
*RES
1 *1831:Q *584:10 22.1012 
2 *584:10 *1515:A_N 22.0497 
3 *584:10 *584:21 25.047 
4 *584:21 *1968:A 48.1267 
5 *584:21 *1517:A 41.1639 
*END

*D_NET *585 0.0136159
*CONN
*I *1829:RESET_B I *D sg13cmos5l_dfrbpq_1
*I *1903:A I *D sg13cmos5l_buf_1
*I *1912:A I *D sg13cmos5l_buf_1
*I *2000:X O *D sg13cmos5l_buf_1
*CAP
1 *1829:RESET_B 9.75994e-05
2 *1903:A 0
3 *1912:A 0
4 *2000:X 2.85793e-05
5 *585:56 0.00243191
6 *585:50 0.00239927
7 *585:39 0.000421921
8 *585:31 0.00103001
9 *585:16 0.000650846
10 *585:6 0.00135247
11 *585:16 *695:51 0.000448714
12 *585:31 *1270:B 0.00014409
13 *585:31 *653:60 0
14 *585:39 *612:53 0.000451121
15 *585:39 *654:10 0
16 *585:56 *630:134 0
17 *585:56 *650:36 0
18 *585:56 *711:22 0.000820371
19 *1530:A *585:31 1.85467e-05
20 *1539:B *585:31 0
21 *1540:A *585:39 0.000182872
22 *1545:A1 *585:39 9.72391e-05
23 *1545:A1 *585:50 0.000112333
24 *1553:A *585:56 0
25 *1629:A2 *585:31 0
26 *1629:B1 *585:39 0.000129595
27 *1641:A1 *585:16 0
28 *1652:A2 *585:16 0
29 *1658:A2 *585:31 0.00011254
30 *1747:A *585:56 0.000447547
31 *2000:A *585:16 0.000166994
32 *2000:A *585:31 4.77425e-05
33 *59:8 *585:16 4.73096e-05
34 *60:10 *585:16 4.73096e-05
35 *74:10 *585:56 0
36 *82:21 *585:31 0
37 *82:34 *585:31 0
38 *103:10 *585:31 0.000176405
39 *312:33 *1829:RESET_B 0.000144299
40 *324:12 *585:56 0
41 *332:14 *585:56 0
42 *334:26 *585:31 7.92547e-05
43 *339:14 *585:16 0.00014474
44 *341:26 *585:39 0
45 *345:8 *585:39 0.000110948
46 *365:20 *585:56 0.000147503
47 *365:75 *585:56 0
48 *365:88 *585:50 0
49 *365:96 *585:39 0
50 *365:128 *585:39 7.68089e-05
51 *371:10 *585:56 0
52 *372:22 *585:56 0.000196353
53 *372:49 *585:31 0
54 *373:24 *585:56 0
55 *378:28 *585:31 0.000290751
56 *411:12 *585:56 0
57 *411:20 *585:56 0
58 *420:8 *585:56 0
59 *420:20 *585:16 0
60 *427:18 *585:16 0
61 *433:18 *585:16 0.000144181
62 *445:8 *585:16 0.000235153
63 *474:8 *585:56 0
64 *523:27 *585:56 0.000182626
65 *563:83 *585:56 0
66 *563:98 *585:56 0
67 *573:37 *585:39 0
68 *575:31 *585:56 0
*RES
1 *2000:X *585:6 20.3502 
2 *585:6 *585:16 47.0143 
3 *585:16 *1912:A 20 
4 *585:6 *585:31 46.5199 
5 *585:31 *585:39 44.223 
6 *585:39 *1903:A 20 
7 *585:39 *585:50 40.7519 
8 *585:50 *585:56 45.235 
9 *585:56 *1829:RESET_B 40.9682 
*END

*D_NET *586 0.0298567
*CONN
*I *1707:A I *D sg13cmos5l_or2_1
*I *1701:B I *D sg13cmos5l_nand2_1
*I *1916:A I *D sg13cmos5l_buf_1
*I *1719:A I *D sg13cmos5l_nor2_1
*I *1512:B I *D sg13cmos5l_nand2_1
*I *1603:B1 I *D sg13cmos5l_a21oi_1
*I *1612:A2 I *D sg13cmos5l_a22oi_1
*I *1614:B1 I *D sg13cmos5l_a21oi_1
*I *1864:X O *D sg13cmos5l_buf_1
*CAP
1 *1707:A 3.34444e-05
2 *1701:B 0
3 *1916:A 0
4 *1719:A 0.000118499
5 *1512:B 0
6 *1603:B1 0
7 *1612:A2 0.000623912
8 *1614:B1 5.8938e-05
9 *1864:X 0.000178819
10 *586:145 0.000924229
11 *586:139 0.0012257
12 *586:128 0.00120014
13 *586:118 0.00179208
14 *586:105 0.000612051
15 *586:101 0.00266498
16 *586:86 0.000429972
17 *586:76 0.0029745
18 *586:64 7.91048e-05
19 *586:36 0.000835855
20 *586:22 0.00152766
21 *586:18 0.00261624
22 *586:10 0.00253993
23 *1719:A *594:69 0
24 *1719:A *643:107 0.000176284
25 *586:18 *619:63 0
26 *586:18 *637:151 0.000213065
27 *586:36 *1311:B 0.000129537
28 *586:36 *611:10 0
29 *586:36 *655:48 0.000942616
30 *586:36 *655:58 2.21468e-05
31 *586:36 *681:10 0.000664061
32 *586:86 *625:10 0.000708396
33 *586:86 *682:14 0.00082803
34 *586:101 *637:41 0
35 *586:101 *671:59 0.00130399
36 *586:101 *706:36 0
37 *586:105 *1306:B 0
38 *586:128 *647:50 0
39 *586:128 *684:58 0.00012816
40 *586:128 *706:62 0
41 *586:139 *632:14 0
42 *586:139 *642:76 0.000106064
43 *586:139 *642:86 0.000341534
44 *586:145 *1701:A 0
45 *586:145 *642:86 0.00183398
46 *1310:A *1612:A2 0
47 *1600:B1 *586:10 0
48 *1619:B2 *586:36 0
49 *1707:B *1707:A 4.77425e-05
50 *1757:B *586:10 7.97166e-05
51 *1757:B *586:76 7.96143e-05
52 *1757:B *586:86 0
53 *1757:B *586:101 0.0001121
54 *1811:D *586:76 0
55 *1811:D *586:101 0
56 *65:8 *586:128 0
57 *85:16 *586:18 0
58 *86:22 *586:18 0
59 *98:20 *586:18 0
60 *98:20 *586:22 0
61 *127:8 *586:145 4.78195e-05
62 *127:16 *586:145 0
63 *163:97 *1612:A2 0
64 *258:74 *586:18 0
65 *308:56 *586:18 0
66 *313:16 *586:18 0
67 *313:29 *586:18 0
68 *315:14 *586:10 0.000181366
69 *321:20 *586:18 0
70 *336:10 *586:36 0
71 *364:45 *586:18 0.000244049
72 *372:115 *586:128 0
73 *410:56 *586:128 0
74 *410:75 *586:18 0
75 *411:35 *586:128 0
76 *414:12 *586:36 0.000636978
77 *494:8 *586:145 1.54556e-05
78 *563:59 *586:101 0
79 *571:16 *586:64 0
80 *572:27 *1612:A2 0.000449669
81 *572:27 *586:36 0.000128307
*RES
1 *1864:X *586:10 41.3802 
2 *586:10 *586:18 46.205 
3 *586:18 *586:22 21.4008 
4 *586:22 *586:36 49.5425 
5 *586:36 *1614:B1 40.5356 
6 *586:22 *1612:A2 44.2539 
7 *586:18 *586:64 40.6695 
8 *586:64 *1603:B1 20 
9 *1864:X *586:76 20.5356 
10 *586:76 *586:86 46.1182 
11 *586:86 *1512:B 20 
12 *586:76 *586:101 48.0984 
13 *586:101 *586:105 21.6171 
14 *586:105 *1719:A 21.1845 
15 *586:105 *586:118 43.5638 
16 *586:118 *586:128 33.39 
17 *586:128 *1916:A 40 
18 *586:118 *586:139 22.8222 
19 *586:139 *586:145 30.3103 
20 *586:145 *1701:B 20 
21 *586:139 *1707:A 40.3193 
*END

*D_NET *587 0.00104741
*CONN
*I *1276:B I *D sg13cmos5l_xnor2_1
*I *1917:X O *D sg13cmos5l_dlygate4sd3_1
*CAP
1 *1276:B 0.000419396
2 *1917:X 0.000419396
3 *1276:B *669:36 0
4 *1276:A *1276:B 0.000208615
5 *560:18 *1276:B 0
*RES
1 *1917:X *1276:B 43.6449 
*END

*D_NET *588 0.00053669
*CONN
*I *1768:D I *D sg13cmos5l_dfrbpq_1
*I *1918:X O *D sg13cmos5l_dlygate4sd3_1
*CAP
1 *1768:D 0.000268345
2 *1918:X 0.000268345
3 *1768:D *1577:C 0
4 *1768:D *719:12 0
*RES
1 *1918:X *1768:D 42.2763 
*END

*D_NET *589 0.00632839
*CONN
*I *1308:A1 I *D sg13cmos5l_o21ai_1
*I *1307:A1 I *D sg13cmos5l_a21o_1
*I *1302:A I *D sg13cmos5l_xnor2_1
*I *1919:X O *D sg13cmos5l_dlygate4sd3_1
*CAP
1 *1308:A1 0.000639453
2 *1307:A1 0.00011657
3 *1302:A 0
4 *1919:X 0.000141703
5 *589:22 0.000721837
6 *589:14 0.00101941
7 *589:8 0.000962159
8 *1308:A1 *1308:A2 0.000177053
9 *1308:A1 *1774:RESET_B 0
10 *1308:A1 *1775:RESET_B 0.00018211
11 *1308:A1 *632:14 0
12 *1308:A1 *643:86 0
13 *589:8 *1775:RESET_B 0
14 *589:14 *1774:RESET_B 0.000181192
15 *589:14 *1775:RESET_B 0
16 *589:14 *632:14 0.000341707
17 *589:22 *1302:B 1.54008e-05
18 *1303:A *589:22 0
19 *1308:B1 *1308:A1 0.000176742
20 *127:16 *1307:A1 0.000176742
21 *127:16 *589:14 4.69735e-05
22 *127:16 *589:22 0.00119337
23 *132:10 *1308:A1 0
24 *132:10 *589:8 0
25 *500:8 *1308:A1 0.000235971
*RES
1 *1919:X *589:8 41.1845 
2 *589:8 *589:14 22.3381 
3 *589:14 *589:22 47.7147 
4 *589:22 *1302:A 20 
5 *589:14 *1307:A1 21.1845 
6 *589:8 *1308:A1 46.2418 
*END

*D_NET *590 0.00154322
*CONN
*I *1303:B I *D sg13cmos5l_xnor2_1
*I *1920:X O *D sg13cmos5l_dlygate4sd3_1
*CAP
1 *1303:B 0
2 *1920:X 0.000403679
3 *590:8 0.000403679
4 *590:8 *1302:B 0
5 *38:8 *590:8 0
6 *129:14 *590:8 0.000553334
7 *130:12 *590:8 0.000182525
*RES
1 *1920:X *590:8 44.5526 
2 *590:8 *1303:B 40 
*END

*D_NET *591 0.000631215
*CONN
*I *1774:D I *D sg13cmos5l_dfrbpq_1
*I *1921:X O *D sg13cmos5l_dlygate4sd3_1
*CAP
1 *1774:D 0.000195063
2 *1921:X 0.000195063
3 *1774:D *1774:RESET_B 0
4 *1774:D *671:53 0.000241089
*RES
1 *1921:X *1774:D 41.9673 
*END

*D_NET *592 0.00413576
*CONN
*I *1334:A I *D sg13cmos5l_and2_1
*I *1333:A I *D sg13cmos5l_nor2_1
*I *1922:X O *D sg13cmos5l_dlygate4sd3_1
*CAP
1 *1334:A 0
2 *1333:A 0
3 *1922:X 6.09406e-05
4 *592:27 0.00059829
5 *592:14 0.000349481
6 *592:6 0.00100871
7 *592:6 *740:18 0
8 *592:14 *1337:A 7.52158e-05
9 *592:14 *641:48 0.000502704
10 *592:14 *740:18 0
11 *592:27 *1338:A 0.000980703
12 *1335:C *592:27 0
13 *147:27 *592:27 0.000112535
14 *150:10 *592:14 0.000447182
15 *567:8 *592:6 0
*RES
1 *1922:X *592:6 20.5356 
2 *592:6 *592:14 44.5011 
3 *592:14 *1333:A 20 
4 *592:6 *592:27 46.1697 
5 *592:27 *1334:A 20 
*END

*D_NET *593 0.00360865
*CONN
*I *1336:A I *D sg13cmos5l_nor2_1
*I *1337:A I *D sg13cmos5l_and2_1
*I *1923:X O *D sg13cmos5l_dlygate4sd3_1
*CAP
1 *1336:A 0.000562054
2 *1337:A 0.000242192
3 *1923:X 0.000395798
4 *593:8 0.00120004
5 *1336:A *1922:A 0
6 *1337:A *641:48 0
7 *1336:B *1336:A 0
8 *1472:A2 *1336:A 4.77425e-05
9 *147:12 *593:8 0.000235056
10 *149:21 *593:8 0
11 *150:10 *1336:A 0.000272664
12 *150:10 *1337:A 0
13 *177:8 *1337:A 0.000236074
14 *177:8 *593:8 0.000341807
15 *567:8 *1336:A 0
16 *567:8 *1337:A 0
17 *592:14 *1337:A 7.52158e-05
*RES
1 *1923:X *593:8 44.0582 
2 *593:8 *1337:A 42.3999 
3 *593:8 *1336:A 44.9131 
*END

*D_NET *594 0.0124675
*CONN
*I *1306:A I *D sg13cmos5l_xnor2_1
*I *1721:B2 I *D sg13cmos5l_a22oi_1
*I *1598:A I *D sg13cmos5l_and3_1
*I *1232:A I *D sg13cmos5l_inv_1
*I *1924:X O *D sg13cmos5l_dlygate4sd3_1
*CAP
1 *1306:A 0
2 *1721:B2 0.000170809
3 *1598:A 0
4 *1232:A 0
5 *1924:X 4.99391e-05
6 *594:69 0.000608088
7 *594:63 0.000808516
8 *594:44 0.000443702
9 *594:35 0.000337917
10 *594:20 0.000509929
11 *594:16 0.000923877
12 *594:6 0.000874268
13 *594:16 *643:12 0.000448023
14 *594:20 *706:10 0
15 *594:35 *1811:RESET_B 0
16 *594:35 *596:10 0.000447608
17 *594:69 *1306:B 0.00017656
18 *594:69 *643:55 0.000931067
19 *594:69 *643:67 0.000340288
20 *1312:A2 *594:69 0
21 *1598:C *594:16 0.000902799
22 *1719:A *594:69 0
23 *1720:A2 *594:6 0
24 *1722:B1 *1721:B2 0
25 *1722:B2 *1721:B2 0.000133305
26 *1722:B2 *594:16 0
27 *1725:B1 *594:16 0
28 *79:8 *594:20 0.000143932
29 *84:10 *1721:B2 7.52149e-05
30 *84:10 *594:44 0.000159096
31 *84:14 *594:16 7.9947e-05
32 *314:23 *594:35 0
33 *314:29 *594:69 0.000290187
34 *321:31 *594:16 0.000712439
35 *400:14 *594:6 6.46166e-05
36 *400:14 *594:16 0.000475094
37 *400:33 *594:16 0.000553661
38 *519:10 *594:69 0.000396251
39 *563:32 *594:69 0.00141041
40 *563:59 *594:35 0
41 *570:14 *594:69 0
*RES
1 *1924:X *594:6 20.5356 
2 *594:6 *594:16 30.918 
3 *594:16 *594:20 21.6171 
4 *594:20 *1232:A 20 
5 *594:20 *594:35 43.5844 
6 *594:35 *1598:A 20 
7 *594:6 *594:44 20.8446 
8 *594:44 *1721:B2 41.6686 
9 *594:44 *594:63 42.266 
10 *594:63 *594:69 30.1867 
11 *594:69 *1306:A 20 
*END

*D_NET *595 0.0105927
*CONN
*I *1478:A I *D sg13cmos5l_nor2_1
*I *1510:B1 I *D sg13cmos5l_a21o_1
*I *1479:A1 I *D sg13cmos5l_a21o_1
*I *1511:B1 I *D sg13cmos5l_a21oi_1
*I *1925:X O *D sg13cmos5l_dlygate4sd3_1
*CAP
1 *1478:A 0
2 *1510:B1 4.64118e-05
3 *1479:A1 0
4 *1511:B1 2.89029e-05
5 *1925:X 0.00017222
6 *595:59 0.00115097
7 *595:37 0.000742224
8 *595:20 0.000884262
9 *595:16 0.000840049
10 *595:8 0.00200369
11 *595:16 *754:29 0.000715225
12 *595:37 *1510:A2 4.92826e-05
13 *595:37 *1731:A_N 0
14 *595:37 *1751:A_N 0
15 *595:37 *663:79 0.000398256
16 *595:37 *712:14 0
17 *595:59 *1346:A 0
18 *595:59 *677:111 0
19 *595:59 *754:23 0.000341216
20 *595:59 *754:25 0.00012816
21 *595:59 *754:29 0.000372152
22 *1244:A *595:16 2.21342e-05
23 *1478:B *595:59 0
24 *1479:B1 *595:37 1.54446e-05
25 *1506:B *595:8 0.000305198
26 *1507:B *595:59 0.000660336
27 *1516:A2 *595:16 0
28 *1516:A1 *595:16 0
29 *1753:A2 *595:37 0.000435456
30 *1807:CLK *595:59 0
31 *1966:A *595:16 0.000106151
32 *1986:A *595:37 0
33 *135:52 *595:37 9.00785e-05
34 *224:10 *595:59 0
35 *283:51 *595:59 0
36 *307:10 *595:59 0
37 *307:27 *595:16 0
38 *307:29 *595:16 0
39 *308:60 *595:37 3.24568e-05
40 *308:72 *595:37 0.000112667
41 *319:10 *595:16 4.82343e-05
42 *364:32 *595:37 0
43 *521:8 *595:37 0
44 *536:8 *595:37 0
45 *559:8 *595:8 0.000305198
46 *583:23 *595:16 0.000586315
*RES
1 *1925:X *595:8 42.0497 
2 *595:8 *595:16 27.3857 
3 *595:16 *595:20 1.3802 
4 *595:20 *1511:B1 20.3502 
5 *595:20 *595:37 47.6632 
6 *595:37 *1479:A1 20 
7 *595:16 *1510:B1 20.5356 
8 *595:8 *595:59 32.5557 
9 *595:59 *1478:A 20 
*END

*D_NET *596 0.00149528
*CONN
*I *1823:D I *D sg13cmos5l_dfrbpq_1
*I *1926:X O *D sg13cmos5l_dlygate4sd3_1
*CAP
1 *1823:D 0.000104077
2 *1926:X 0.000419762
3 *596:10 0.000523839
4 *1823:D *706:30 0
5 *596:10 *1811:RESET_B 0
6 *596:10 *695:10 0
7 *1811:D *1823:D 0
8 *1915:A *596:10 0
9 *314:23 *596:10 0
10 *594:35 *596:10 0.000447608
*RES
1 *1926:X *596:10 43.8831 
2 *596:10 *1823:D 40.8802 
*END

*D_NET *597 0.00997956
*CONN
*I *1606:B1 I *D sg13cmos5l_a21oi_1
*I *1710:B2 I *D sg13cmos5l_a221oi_1
*I *1694:B2 I *D sg13cmos5l_a221oi_1
*I *1681:B2 I *D sg13cmos5l_a221oi_1
*I *1717:A I *D sg13cmos5l_nor2_1
*I *1706:A1 I *D sg13cmos5l_a221oi_1
*I *1687:A1 I *D sg13cmos5l_a221oi_1
*I *1696:B1 I *D sg13cmos5l_o21ai_1
*I *1865:X O *D sg13cmos5l_buf_1
*CAP
1 *1606:B1 0.000284903
2 *1710:B2 0.000134588
3 *1694:B2 0
4 *1681:B2 0.000236076
5 *1717:A 0.000126604
6 *1706:A1 0
7 *1687:A1 0.000440128
8 *1696:B1 5.28491e-05
9 *1865:X 0.000137372
10 *597:78 0.000573245
11 *597:76 0.000471756
12 *597:56 0.000114367
13 *597:22 0.000897433
14 *597:16 0.000818605
15 *597:12 0.000498514
16 *597:10 0.000352366
17 *597:8 0.000702514
18 *1606:B1 *642:36 0.000128186
19 *1606:B1 *642:44 0
20 *1606:B1 *644:95 0.000182121
21 *1606:B1 *684:30 0
22 *1681:B2 *648:95 0
23 *1687:A1 *1685:B1 0
24 *1687:A1 *647:54 0
25 *1687:A1 *684:58 0
26 *597:8 *642:44 0.000112426
27 *597:8 *645:72 0.000144943
28 *597:10 *684:30 0.000859433
29 *597:12 *684:30 0.000160033
30 *597:16 *646:38 0
31 *597:16 *684:30 2.25909e-05
32 *597:16 *717:136 0.000396766
33 *597:22 *646:30 0
34 *597:22 *706:54 0
35 *597:22 *717:109 0
36 *597:22 *717:136 0
37 *1681:B1 *1681:B2 0
38 *1693:B *1717:A 0.000148784
39 *1693:B *597:78 0
40 *1694:A1 *1710:B2 0
41 *1694:A1 *597:78 0
42 *1696:A1 *1687:A1 0.000112394
43 *1696:A2 *1687:A1 0
44 *1696:A2 *1696:B1 2.31012e-06
45 *1698:B1 *1687:A1 0
46 *1699:A2 *1687:A1 0
47 *1699:A2 *1696:B1 0
48 *1700:B1 *1687:A1 6.31433e-05
49 *1700:A2 *1687:A1 0
50 *1706:B1 *597:56 1.54008e-05
51 *1706:A2 *597:56 1.27224e-05
52 *365:26 *1681:B2 1.54008e-05
53 *365:37 *1681:B2 0.000332316
54 *365:56 *1681:B2 1.54008e-05
55 *365:56 *1717:A 7.92265e-05
56 *365:56 *597:78 0.000193214
57 *365:64 *1710:B2 8.00842e-05
58 *365:64 *597:12 0
59 *365:64 *597:16 0
60 *399:16 *1606:B1 0.000122893
61 *408:22 *1606:B1 4.77425e-05
62 *408:35 *1606:B1 1.61708e-05
63 *408:35 *597:10 0
64 *410:22 *597:22 0
65 *410:56 *597:22 0
66 *410:56 *597:56 0
67 *476:10 *1681:B2 8.00995e-05
68 *476:10 *597:22 0
69 *477:46 *597:16 0.000506478
70 *477:63 *597:10 0
71 *477:63 *597:16 0
72 *488:10 *1681:B2 8.00842e-05
73 *488:10 *597:78 1.54008e-05
74 *492:10 *1687:A1 0.000112349
75 *503:10 *1710:B2 8.0128e-05
76 *562:8 *597:16 0
*RES
1 *1865:X *597:8 41.4008 
2 *597:8 *597:10 4.0582 
3 *597:10 *597:12 0.8446 
4 *597:12 *597:16 23.811 
5 *597:16 *597:22 23.7286 
6 *597:22 *1696:B1 40.4738 
7 *597:22 *1687:A1 44.5526 
8 *597:16 *597:56 41.0712 
9 *597:56 *1706:A1 20 
10 *597:12 *1717:A 41.4214 
11 *597:10 *597:76 20 
12 *597:76 *597:78 3.1312 
13 *597:78 *1681:B2 22.5338 
14 *597:78 *1694:B2 20 
15 *597:76 *1710:B2 21.3184 
16 *597:8 *1606:B1 43.0437 
*END

*D_NET *598 0.00576297
*CONN
*I *1315:A I *D sg13cmos5l_nor2_1
*I *1242:A I *D sg13cmos5l_inv_1
*I *1927:X O *D sg13cmos5l_dlygate4sd3_1
*CAP
1 *1315:A 0.000434088
2 *1242:A 0
3 *1927:X 0.000150987
4 *598:22 0.000123134
5 *598:14 0.00127888
6 *598:8 0.00174082
7 *1315:A *667:10 0
8 *1315:A *680:27 0.000629414
9 *1315:A *762:12 0.000144861
10 *598:14 *1792:RESET_B 0
11 *598:14 *679:16 0
12 *598:14 *680:27 0.000234224
13 *598:14 *687:10 0.000393654
14 *598:14 *762:12 0
15 *598:14 *762:42 0
16 *598:22 *659:14 0
17 *1874:A *1315:A 0
18 *25:16 *598:14 0
19 *25:24 *598:14 0.000441068
20 *89:10 *598:22 0.00017644
21 *90:18 *598:14 0
22 *182:34 *598:14 0
23 *188:62 *598:14 0
24 *582:10 *1315:A 1.54008e-05
*RES
1 *1927:X *598:8 41.339 
2 *598:8 *598:14 31.3918 
3 *598:14 *598:22 41.3184 
4 *598:22 *1242:A 20 
5 *598:8 *1315:A 44.429 
*END

*D_NET *599 0.00103452
*CONN
*I *1298:A I *D sg13cmos5l_xor2_1
*I *1928:X O *D sg13cmos5l_dlygate4sd3_1
*CAP
1 *1298:A 2.56389e-05
2 *1928:X 0.000443833
3 *599:8 0.000469472
4 *599:8 *644:47 0
5 *127:8 *1298:A 4.77425e-05
6 *494:8 *1298:A 4.78356e-05
*RES
1 *1928:X *599:8 43.3166 
2 *599:8 *1298:A 40.3193 
*END

*D_NET *600 0.000210188
*CONN
*I *1773:D I *D sg13cmos5l_dfrbpq_1
*I *1929:X O *D sg13cmos5l_dlygate4sd3_1
*CAP
1 *1773:D 0
2 *1929:X 4.0927e-05
3 *600:8 4.0927e-05
4 *37:12 *600:8 0
5 *66:12 *600:8 0.000128334
*RES
1 *1929:X *600:8 40.5974 
2 *600:8 *1773:D 40 
*END

*D_NET *601 0.00458319
*CONN
*I *1324:A I *D sg13cmos5l_nor2_1
*I *1325:A I *D sg13cmos5l_and2_1
*I *1930:X O *D sg13cmos5l_dlygate4sd3_1
*CAP
1 *1324:A 0.000701186
2 *1325:A 0.000134498
3 *1930:X 0.00118979
4 *601:10 0.000623101
5 *1324:A *1330:A 0
6 *1324:A *1954:A 0
7 *1324:A *639:101 0
8 *1324:A *721:10 0.000240383
9 *1325:A *680:50 0.000209374
10 *601:10 *627:12 0
11 *601:10 *735:12 0
12 *1324:B *1324:A 0
13 *1781:D *1325:A 0
14 *1784:D *1324:A 0
15 *142:8 *1324:A 0.00111456
16 *142:8 *601:10 0.000242138
17 *143:16 *601:10 0.00012816
18 *143:25 *1325:A 0
19 *567:51 *601:10 0
*RES
1 *1930:X *601:10 45.4281 
2 *601:10 *1325:A 41.4008 
3 *1930:X *1324:A 47.4572 
*END

*D_NET *602 0.000637879
*CONN
*I *1326:B I *D sg13cmos5l_nor3_1
*I *1931:X O *D sg13cmos5l_dlygate4sd3_1
*CAP
1 *1326:B 3.81913e-05
2 *1931:X 0.000102696
3 *602:8 0.000140887
4 *1326:B *680:50 0
5 *602:8 *734:19 0
6 *1452:B *602:8 0.000340704
7 *143:16 *1326:B 1.54008e-05
*RES
1 *1931:X *602:8 41.5862 
2 *602:8 *1326:B 40.3193 
*END

*D_NET *603 0.0073176
*CONN
*I *1267:A I *D sg13cmos5l_xnor2_1
*I *1266:A I *D sg13cmos5l_nand2_1
*I *1932:X O *D sg13cmos5l_dlygate4sd3_1
*CAP
1 *1267:A 0
2 *1266:A 0
3 *1932:X 0.000210414
4 *603:22 0.000407158
5 *603:14 0.00131387
6 *603:8 0.00111713
7 *603:8 *671:22 0.000744436
8 *603:8 *706:114 0
9 *603:14 *1999:A 0.000240918
10 *603:14 *652:20 0
11 *603:14 *669:16 8.00842e-05
12 *603:14 *671:22 0.00151339
13 *603:22 *654:61 0.000183039
14 *603:22 *669:10 0
15 *603:22 *671:47 0.000237012
16 *1273:A2 *603:14 0.000181694
17 *1279:B2 *603:8 0.000447271
18 *1279:B2 *603:14 0.000159183
19 *1634:A *603:14 0.00027326
20 *100:10 *603:22 0.000208747
21 *433:8 *603:14 0
22 *433:18 *603:14 0
*RES
1 *1932:X *603:8 43.5638 
2 *603:8 *603:14 31.2373 
3 *603:14 *603:22 43.9449 
4 *603:22 *1266:A 20 
5 *603:8 *1267:A 40 
*END

*D_NET *604 0.000487409
*CONN
*I *1766:D I *D sg13cmos5l_dfrbpq_1
*I *1933:X O *D sg13cmos5l_dlygate4sd3_1
*CAP
1 *1766:D 0.000219996
2 *1933:X 0.000219996
3 *1279:B1 *1766:D 0
4 *1933:A *1766:D 4.74163e-05
*RES
1 *1933:X *1766:D 41.9673 
*END

*D_NET *605 0.00281629
*CONN
*I *1292:A1 I *D sg13cmos5l_a21oi_1
*I *1288:A I *D sg13cmos5l_xnor2_1
*I *1934:X O *D sg13cmos5l_dlygate4sd3_1
*CAP
1 *1292:A1 0
2 *1288:A 0
3 *1934:X 0.000474129
4 *605:27 0.000407271
5 *605:12 0.000437756
6 *605:8 0.000504614
7 *605:8 *1677:A 0
8 *605:8 *629:16 0
9 *605:8 *647:14 0
10 *605:12 *1288:B 1.54008e-05
11 *605:27 *1288:B 8.00842e-05
12 *605:27 *647:23 0.00012929
13 *605:27 *647:29 0
14 *1289:B *605:8 0
15 *1292:B1 *605:27 0
16 *47:10 *605:27 0
17 *116:17 *605:8 0
18 *117:24 *605:8 0.000767744
19 *118:8 *605:8 0
20 *119:14 *605:12 0
21 *472:8 *605:8 0
*RES
1 *1934:X *605:8 45.3302 
2 *605:8 *605:12 20.3193 
3 *605:12 *1288:A 20 
4 *605:12 *605:27 43.7698 
5 *605:27 *1292:A1 20 
*END

*D_NET *606 0.000824627
*CONN
*I *1296:A I *D sg13cmos5l_xnor2_1
*I *1935:X O *D sg13cmos5l_dlygate4sd3_1
*CAP
1 *1296:A 0.000202405
2 *1935:X 0.000202405
3 *1296:A *647:23 1.54008e-05
4 *1296:A *647:42 0.000162076
5 *1296:B *1296:A 0.000242341
6 *48:12 *1296:A 0
*RES
1 *1935:X *1296:A 42.4617 
*END

*D_NET *607 0.00208638
*CONN
*I *1772:D I *D sg13cmos5l_dfrbpq_1
*I *1936:X O *D sg13cmos5l_dlygate4sd3_1
*CAP
1 *1772:D 0
2 *1936:X 0.000552941
3 *607:10 0.000552941
4 *607:10 *646:59 0
5 *607:10 *671:53 0
6 *1820:D *607:10 0
7 *64:8 *607:10 0.000980494
*RES
1 *1936:X *607:10 46.1697 
2 *607:10 *1772:D 40 
*END

*D_NET *608 0.011225
*CONN
*I *1672:B1 I *D sg13cmos5l_o21ai_1
*I *1632:B1 I *D sg13cmos5l_o21ai_1
*I *1661:A1 I *D sg13cmos5l_a221oi_1
*I *1644:B1 I *D sg13cmos5l_o21ai_1
*I *1640:B2 I *D sg13cmos5l_a221oi_1
*I *1626:B2 I *D sg13cmos5l_a221oi_1
*I *1651:B2 I *D sg13cmos5l_a221oi_1
*I *1622:B1 I *D sg13cmos5l_o21ai_1
*I *1866:X O *D sg13cmos5l_buf_1
*CAP
1 *1672:B1 5.45778e-05
2 *1632:B1 4.47723e-05
3 *1661:A1 0.000233523
4 *1644:B1 6.50759e-05
5 *1640:B2 2.98143e-05
6 *1626:B2 2.90527e-05
7 *1651:B2 0
8 *1622:B1 0.000169174
9 *1866:X 0.000308734
10 *608:86 0.00061086
11 *608:82 0.000357033
12 *608:57 0.000437711
13 *608:51 0.00060456
14 *608:34 0.000659388
15 *608:28 0.000826351
16 *608:16 0.00118724
17 *608:10 0.00110643
18 *1672:B1 *649:79 0
19 *608:16 *654:115 0.000765155
20 *608:28 *650:46 0.000451095
21 *608:28 *653:68 0
22 *608:34 *650:46 0.000128527
23 *608:34 *673:61 0.000763973
24 *608:51 *673:61 0.000143585
25 *608:86 *610:35 0.000714148
26 *1567:C *608:10 0
27 *1567:C *608:16 0
28 *1567:D *608:10 0
29 *1622:A2 *1622:B1 1.54008e-05
30 *1623:B1 *1622:B1 0.000240918
31 *1623:B1 *1626:B2 0
32 *1632:A2 *1632:B1 6.39133e-05
33 *1637:A *1626:B2 4.77425e-05
34 *1639:B *608:34 0.000396106
35 *1639:B *608:51 0
36 *1643:B *1661:A1 0
37 *1644:A1 *1661:A1 0
38 *1644:A2 *1644:B1 1.54008e-05
39 *1661:B1 *1661:A1 1.54008e-05
40 *1661:A2 *1661:A1 0
41 *1672:A2 *1672:B1 8.01938e-05
42 *103:10 *608:28 0
43 *110:14 *1644:B1 0
44 *110:14 *1661:A1 0
45 *338:90 *608:16 0
46 *338:90 *608:28 0
47 *365:136 *1640:B2 1.54008e-05
48 *372:78 *608:34 7.56308e-05
49 *372:86 *1622:B1 0
50 *372:86 *608:51 7.68089e-05
51 *378:22 *608:57 0
52 *392:12 *608:51 1.65725e-05
53 *426:10 *1622:B1 0
54 *427:12 *608:16 0
55 *427:12 *608:28 0
56 *439:10 *608:34 1.54008e-05
57 *449:16 *608:57 0
58 *465:14 *608:10 0
59 *467:10 *608:10 7.65627e-05
60 *467:10 *608:16 0.00012984
61 *468:10 *608:16 7.65602e-05
62 *477:10 *608:10 0.000176405
63 *574:14 *608:57 0
64 *576:48 *608:10 0
*RES
1 *1866:X *608:10 43.0179 
2 *608:10 *608:16 28.4872 
3 *608:16 *608:28 45.0161 
4 *608:28 *608:34 24.841 
5 *608:34 *1622:B1 41.6171 
6 *608:34 *608:51 1.8334 
7 *608:51 *608:57 44.2127 
8 *608:57 *1651:B2 40 
9 *608:51 *1626:B2 40.3193 
10 *608:28 *1640:B2 20.3193 
11 *608:16 *608:82 20 
12 *608:82 *608:86 23.3166 
13 *608:86 *1644:B1 20.5356 
14 *608:86 *1661:A1 21.8334 
15 *608:82 *1632:B1 40.4274 
16 *608:10 *1672:B1 40.5356 
*END

*D_NET *609 0.000883565
*CONN
*I *1314:A_N I *D sg13cmos5l_nand2b_1
*I *1313:A I *D sg13cmos5l_nor2b_1
*I *1937:X O *D sg13cmos5l_dlygate4sd3_1
*CAP
1 *1314:A_N 0
2 *1313:A 8.79743e-05
3 *1937:X 0.000132309
4 *609:8 0.000220283
5 *134:8 *1313:A 0
6 *134:8 *609:8 0
7 *136:46 *1313:A 0.000291062
8 *136:46 *609:8 7.65602e-05
9 *191:20 *1313:A 7.53765e-05
*RES
1 *1937:X *609:8 41.339 
2 *609:8 *1313:A 41.339 
3 *609:8 *1314:A_N 40 
*END

*D_NET *610 0.0102003
*CONN
*I *1270:A I *D sg13cmos5l_and2_1
*I *1271:A I *D sg13cmos5l_xor2_1
*I *1938:X O *D sg13cmos5l_dlygate4sd3_1
*CAP
1 *1270:A 0
2 *1271:A 0
3 *1938:X 6.54485e-05
4 *610:35 0.00130637
5 *610:20 0.00137707
6 *610:8 0.00274888
7 *610:8 *652:20 0
8 *610:20 *1271:B 0
9 *610:20 *1274:A 0
10 *610:20 *654:88 0
11 *610:20 *727:16 0
12 *610:35 *1270:B 8.00842e-05
13 *1281:A1 *610:20 0.000144877
14 *1629:A2 *610:35 0.000177109
15 *106:8 *610:20 0.000209085
16 *106:25 *610:20 0
17 *106:25 *610:35 0
18 *109:16 *610:20 0.000446767
19 *110:18 *610:35 0
20 *334:26 *610:35 7.65602e-05
21 *378:28 *610:35 0
22 *378:45 *610:35 0.000355895
23 *378:51 *610:20 0.000926982
24 *378:51 *610:35 0.00127899
25 *429:8 *610:35 0.000291999
26 *560:18 *610:8 0
27 *608:86 *610:35 0.000714148
*RES
1 *1938:X *610:8 40.5356 
2 *610:8 *610:20 34.42 
3 *610:20 *1271:A 20 
4 *610:8 *610:35 35.553 
5 *610:35 *1270:A 20 
*END

*D_NET *611 0.00842022
*CONN
*I *1263:B I *D sg13cmos5l_or2_1
*I *1258:B I *D sg13cmos5l_and2_1
*I *1234:A I *D sg13cmos5l_inv_1
*I *1939:X O *D sg13cmos5l_dlygate4sd3_1
*CAP
1 *1263:B 7.77865e-05
2 *1258:B 0.000433527
3 *1234:A 0.000818912
4 *1939:X 0.000835479
5 *611:18 0.00178324
6 *611:10 0.00144407
7 *1258:B *1258:A 0
8 *1263:B *1263:A 0.000111657
9 *611:10 *1311:B 0.000144447
10 *611:10 *655:42 7.51285e-05
11 *611:10 *655:48 4.68099e-05
12 *611:10 *689:24 0
13 *611:10 *714:18 0
14 *611:18 *655:69 0
15 *611:18 *672:24 0.00067349
16 *611:18 *672:28 0.000181464
17 *611:18 *689:24 0
18 *611:18 *714:18 0
19 *1537:B *1258:B 4.78192e-05
20 *1621:A1 *1234:A 0.000500948
21 *1625:S *1234:A 0.00039508
22 *1989:A *611:10 0
23 *81:8 *1234:A 0
24 *92:20 *611:18 8.09323e-05
25 *97:35 *1258:B 0.00024134
26 *312:64 *611:10 7.65627e-05
27 *336:10 *611:10 0
28 *338:22 *1258:B 0.000110829
29 *340:8 *1258:B 0
30 *378:16 *1234:A 0.000340704
31 *404:10 *1258:B 0
32 *561:49 *611:10 0
33 *572:12 *611:10 0
34 *586:36 *611:10 0
*RES
1 *1939:X *611:10 47.0349 
2 *611:10 *611:18 46.1079 
3 *611:18 *1234:A 48.3018 
4 *611:18 *1258:B 43.914 
5 *611:10 *1263:B 40.7519 
*END

*D_NET *612 0.015594
*CONN
*I *1601:B1 I *D sg13cmos5l_a21oi_1
*I *1238:A I *D sg13cmos5l_inv_1
*I *1259:B I *D sg13cmos5l_nand2_1
*I *1261:B I *D sg13cmos5l_xnor2_1
*I *1940:X O *D sg13cmos5l_dlygate4sd3_1
*CAP
1 *1601:B1 0.00024212
2 *1238:A 0.000170872
3 *1259:B 0
4 *1261:B 0.00058224
5 *1940:X 0
6 *612:53 0.000400963
7 *612:45 0.00105424
8 *612:35 0.00166085
9 *612:25 0.00131255
10 *612:4 0.00081597
11 *1261:B *1261:A 1.54008e-05
12 *1261:B *613:14 0.000143932
13 *1261:B *674:26 0
14 *1601:B1 *1601:A2 8.00842e-05
15 *612:25 *660:62 7.91244e-05
16 *612:25 *674:26 0
17 *612:35 *1258:A 0
18 *612:35 *637:151 0
19 *612:45 *672:16 0.00156979
20 *612:53 *1259:A 0
21 *612:53 *654:10 0.00023709
22 *612:53 *654:134 0.000482968
23 *1538:A1 *612:45 0.000395125
24 *1590:A2 *612:45 0
25 *1602:B *612:35 0
26 *1658:A2 *612:53 0
27 *4:38 *1261:B 0
28 *4:38 *612:25 0
29 *86:14 *612:35 0.000396272
30 *93:8 *612:53 0.000111694
31 *98:12 *612:35 0.000230207
32 *202:16 *612:25 0.000557251
33 *204:8 *612:35 0.000291632
34 *258:62 *612:25 0.000611263
35 *258:62 *612:35 0
36 *305:28 *1601:B1 0
37 *305:28 *612:25 7.65602e-05
38 *305:28 *612:35 0.000130715
39 *312:51 *1238:A 0
40 *312:51 *612:35 0
41 *335:10 *612:45 0.000396781
42 *337:10 *1238:A 0
43 *338:18 *612:35 0.000987469
44 *341:26 *612:53 0
45 *345:16 *612:53 0
46 *347:26 *612:53 0.000183747
47 *347:51 *612:53 0.000320805
48 *392:35 *612:45 0
49 *403:10 *612:35 0.000501086
50 *404:10 *612:35 1.54556e-05
51 *417:14 *612:45 0
52 *417:14 *612:53 0.000612551
53 *447:16 *612:45 0.000395999
54 *564:22 *1261:B 0
55 *574:14 *612:45 0
56 *576:33 *612:53 8.00842e-05
57 *585:39 *612:53 0.000451121
*RES
1 *1940:X *612:4 20 
2 *612:4 *1261:B 24.8846 
3 *612:4 *612:25 24.2436 
4 *612:25 *612:35 30.609 
5 *612:35 *612:45 49.579 
6 *612:45 *612:53 47.004 
7 *612:53 *1259:B 20 
8 *612:35 *1238:A 21.4008 
9 *612:25 *1601:B1 42.1012 
*END

*D_NET *613 0.000816682
*CONN
*I *1812:D I *D sg13cmos5l_dfrbpq_1
*I *1941:X O *D sg13cmos5l_dlygate4sd3_1
*CAP
1 *1812:D 0
2 *1941:X 0.000312317
3 *613:14 0.000312317
4 *613:14 *1812:RESET_B 0
5 *1261:B *613:14 0.000143932
6 *4:38 *613:14 0
7 *306:14 *613:14 4.81157e-05
8 *306:20 *613:14 0
*RES
1 *1941:X *613:14 42.9458 
2 *613:14 *1812:D 40 
*END

*D_NET *614 0.00337532
*CONN
*I *1258:A I *D sg13cmos5l_and2_1
*I *1263:A I *D sg13cmos5l_or2_1
*I *1942:X O *D sg13cmos5l_dlygate4sd3_1
*CAP
1 *1258:A 0.000722202
2 *1263:A 0.000425518
3 *1942:X 0.00114772
4 *1258:A *1573:D 0
5 *1258:A *1604:A1 0.000256648
6 *1258:B *1258:A 0
7 *1263:B *1263:A 0.000111657
8 *1265:A1 *1263:A 0
9 *1762:B *1263:A 0.000144735
10 *1765:D *1263:A 4.77425e-05
11 *81:14 *1258:A 0
12 *97:16 *1258:A 8.03475e-05
13 *97:16 *1263:A 0
14 *97:35 *1258:A 0.0003756
15 *312:51 *1258:A 1.54008e-05
16 *376:12 *1258:A 4.77425e-05
17 *573:10 *1263:A 0
18 *612:35 *1258:A 0
*RES
1 *1942:X *1263:A 44.3672 
2 *1942:X *1258:A 46.7421 
*END

*D_NET *615 0.00134474
*CONN
*I *1339:A1 I *D sg13cmos5l_a21oi_1
*I *1340:A1 I *D sg13cmos5l_o21ai_1
*I *1943:X O *D sg13cmos5l_dlygate4sd3_1
*CAP
1 *1339:A1 5.17426e-05
2 *1340:A1 0.000153693
3 *1943:X 0.000137696
4 *615:12 0.000343132
5 *1339:A1 *1339:B1 1.54008e-05
6 *1340:A1 *739:51 0.000236486
7 *615:12 *739:51 0.000181608
8 *1340:A2 *1340:A1 0.000112552
9 *22:10 *615:12 0
10 *151:32 *1339:A1 0.000112426
*RES
1 *1943:X *615:12 41.5141 
2 *615:12 *1340:A1 41.8437 
3 *615:12 *1339:A1 40.7519 
*END

*D_NET *616 0.00270221
*CONN
*I *1283:A I *D sg13cmos5l_nand2_1
*I *1284:A I *D sg13cmos5l_xor2_1
*I *1944:X O *D sg13cmos5l_dlygate4sd3_1
*CAP
1 *1283:A 0
2 *1284:A 6.19959e-05
3 *1944:X 0.000528592
4 *616:10 0.000590588
5 *1284:A *620:10 0
6 *1284:A *648:35 0.000287475
7 *616:10 *1770:RESET_B 0.00033953
8 *616:10 *1944:A 0
9 *616:10 *648:35 0.000127878
10 *616:10 *671:49 0
11 *1818:D *616:10 0
12 *109:31 *1284:A 0.000233942
13 *109:31 *616:10 0.00053221
14 *113:10 *616:10 0
15 *113:14 *616:10 0
16 *461:8 *616:10 0
*RES
1 *1944:X *616:10 46.1388 
2 *616:10 *1284:A 41.339 
3 *616:10 *1283:A 40 
*END

*D_NET *617 0.00924671
*CONN
*I *1884:A I *D sg13cmos5l_buf_1
*I *1945:X O *D sg13cmos5l_dlygate4sd3_1
*CAP
1 *1884:A 0
2 *1945:X 0.000392974
3 *617:16 0.00147569
4 *617:10 0.00186867
5 *617:10 *1259:A 0
6 *617:16 *652:6 0
7 *617:16 *671:10 1.54556e-05
8 *617:16 *672:62 0
9 *617:16 *689:24 0.000234311
10 *1766:CLK *617:16 0
11 *1816:CLK *617:10 0.000207854
12 *2000:A *617:10 0
13 *104:14 *617:16 0.00194056
14 *440:16 *617:16 0.00311118
*RES
1 *1945:X *617:10 43.4814 
2 *617:10 *617:16 40.0747 
3 *617:16 *1884:A 20 
*END

*D_NET *618 0.00399203
*CONN
*I *1896:A I *D sg13cmos5l_buf_1
*I *1946:X O *D sg13cmos5l_dlygate4sd3_1
*CAP
1 *1896:A 0.000134766
2 *1946:X 0.000477439
3 *618:10 0.000612205
4 *1896:A *1439:B2 0.000110936
5 *618:10 *1439:A1 0.000291986
6 *618:10 *665:61 1.54008e-05
7 *1446:B *618:10 0
8 *1446:A *618:10 0
9 *167:12 *618:10 0.000554323
10 *215:10 *618:10 0.000181695
11 *217:12 *1896:A 0.00017562
12 *250:8 *618:10 0.00045217
13 *257:14 *618:10 0
14 *257:16 *618:10 0.000985488
15 *270:14 *618:10 0
*RES
1 *1946:X *618:10 47.5911 
2 *618:10 *1896:A 41.4008 
*END

*D_NET *619 0.024286
*CONN
*I *1584:A I *D sg13cmos5l_or2_1
*I *1510:A2 I *D sg13cmos5l_a21o_1
*I *1511:A2 I *D sg13cmos5l_a21oi_1
*I *1610:A1 I *D sg13cmos5l_a221oi_1
*I *1603:A1 I *D sg13cmos5l_a21oi_1
*I *1669:B2 I *D sg13cmos5l_a221oi_1
*I *1866:A I *D sg13cmos5l_buf_1
*I *1865:A I *D sg13cmos5l_buf_1
*I *1867:X O *D sg13cmos5l_buf_1
*CAP
1 *1584:A 0.00013134
2 *1510:A2 0.000147107
3 *1511:A2 2.92417e-05
4 *1610:A1 0
5 *1603:A1 0
6 *1669:B2 4.37077e-05
7 *1866:A 0.000464751
8 *1865:A 0.000217273
9 *1867:X 0
10 *619:101 0.000749504
11 *619:87 0.00166134
12 *619:81 0.0017969
13 *619:69 0.000914297
14 *619:67 0.000263039
15 *619:63 0.000703122
16 *619:53 0.00089386
17 *619:29 0.000647773
18 *619:25 0.00163518
19 *619:10 0.00217206
20 *619:6 0.000634256
21 *1510:A2 *758:16 2.23421e-05
22 *1865:A *1560:A 0
23 *1865:A *642:44 0.000112413
24 *619:10 *1558:A 0
25 *619:25 *1562:A 0.000104189
26 *619:67 *758:16 0.000290175
27 *619:81 *1733:B 0
28 *619:81 *1751:A_N 0
29 *619:81 *642:26 0
30 *619:81 *757:8 0.00012315
31 *619:87 *1732:B_N 0.000315144
32 *619:87 *1733:B 1.51e-05
33 *619:87 *636:20 0
34 *619:87 *672:117 7.08437e-05
35 *619:101 *636:20 4.84896e-05
36 *1511:A1 *1510:A2 0.000235658
37 *1523:A *1866:A 0
38 *1551:A1 *1866:A 0
39 *1551:A1 *619:29 0
40 *1559:A1 *619:63 0.000236596
41 *1571:A1 *1584:A 0.000112558
42 *1571:A1 *619:63 0.000143171
43 *1606:A1 *619:25 0
44 *1606:A2 *619:25 4.78524e-05
45 *1619:B2 *619:101 0.000465812
46 *1668:B *1669:B2 8.00842e-05
47 *1669:C1 *1669:B2 8.00842e-05
48 *1669:A2 *619:25 0.000143171
49 *1731:B *1511:A2 3.23417e-05
50 *1731:B *619:81 0.000111568
51 *1734:C *619:81 0
52 *1824:D *619:87 0
53 *1867:A *619:53 0
54 *307:35 *619:63 0.000692493
55 *307:37 *619:63 0.000214586
56 *310:18 *1510:A2 0
57 *310:43 *619:63 0.000129595
58 *311:18 *619:10 0
59 *312:33 *619:81 0
60 *313:16 *619:63 4.78911e-05
61 *314:10 *619:53 0
62 *321:20 *619:63 0.000145924
63 *321:20 *619:67 0
64 *321:20 *619:81 0.000283481
65 *326:12 *1866:A 0
66 *332:14 *1866:A 0
67 *342:18 *1866:A 0.00103987
68 *342:18 *619:29 0.000342905
69 *358:30 *1865:A 0.000553798
70 *358:30 *619:10 0.0009585
71 *361:14 *619:10 0
72 *361:14 *619:53 0
73 *362:16 *619:63 0
74 *363:10 *1865:A 0.000181176
75 *364:32 *619:81 0.00108116
76 *364:32 *619:87 0
77 *365:10 *619:25 0
78 *372:147 *619:87 3.94394e-05
79 *372:147 *619:101 1.27224e-05
80 *375:14 *619:101 0.000283744
81 *386:8 *619:10 0
82 *386:8 *619:53 0.000287246
83 *386:19 *1584:A 3.24516e-05
84 *386:19 *619:63 0.000143171
85 *407:18 *619:101 0.00017562
86 *407:33 *619:87 0.000129049
87 *407:33 *619:101 1.54008e-05
88 *408:22 *619:25 0.000596538
89 *410:71 *619:81 0
90 *477:10 *1866:A 0
91 *517:12 *1865:A 0.000128952
92 *517:12 *619:10 0.000713418
93 *524:8 *619:81 0
94 *524:8 *619:87 0
95 *570:55 *1865:A 0.000112108
96 *571:16 *619:101 0
97 *576:48 *1866:A 0
98 *586:18 *619:63 0
99 *595:37 *1510:A2 4.92826e-05
*RES
1 *1867:X *619:6 40 
2 *619:6 *619:10 6.7877 
3 *619:10 *1865:A 43.3269 
4 *619:10 *619:25 30.0528 
5 *619:25 *619:29 21.5862 
6 *619:29 *1866:A 45.5517 
7 *619:29 *1669:B2 40.5356 
8 *619:6 *619:53 21.8334 
9 *619:53 *619:63 47.2306 
10 *619:63 *619:67 21.339 
11 *619:67 *619:69 20 
12 *619:69 *619:81 49.682 
13 *619:81 *619:87 8.1267 
14 *619:87 *619:101 47.3748 
15 *619:101 *1603:A1 20 
16 *619:87 *1610:A1 20 
17 *619:69 *1511:A2 20.3193 
18 *619:67 *1510:A2 41.6686 
19 *619:53 *1584:A 21.3493 
*END

*D_NET *620 0.00226243
*CONN
*I *1277:A I *D sg13cmos5l_and2_1
*I *1278:A I *D sg13cmos5l_xnor2_1
*I *1947:X O *D sg13cmos5l_dlygate4sd3_1
*CAP
1 *1277:A 0
2 *1278:A 0.000373759
3 *1947:X 0.000410209
4 *620:12 0.000373759
5 *620:10 0.000410209
6 *1278:A *1277:B 3.23472e-05
7 *1278:A *1278:B 0.000144126
8 *620:10 *1770:RESET_B 0
9 *620:10 *649:36 0.000502562
10 *620:10 *671:49 0
11 *1282:A *1278:A 0
12 *1282:B_N *1278:A 0
13 *1284:A *620:10 0
14 *45:8 *620:10 0
15 *106:8 *1278:A 0
16 *108:10 *1278:A 1.54556e-05
17 *109:31 *1278:A 0
18 *109:31 *620:10 0
*RES
1 *1947:X *620:10 44.532 
2 *620:10 *620:12 20 
3 *620:12 *1278:A 23.7492 
4 *620:12 *1277:A 20 
*END

*D_NET *621 0.0043113
*CONN
*I *1898:A I *D sg13cmos5l_buf_1
*I *1948:X O *D sg13cmos5l_dlygate4sd3_1
*CAP
1 *1898:A 0
2 *1948:X 0.00138218
3 *621:12 0.00138218
4 *621:12 *1950:A 0.000274583
5 *621:12 *651:22 0
6 *621:12 *667:10 0
7 *621:12 *668:41 0
8 *621:12 *688:10 0.000363095
9 *621:12 *688:37 4.75212e-05
10 *1874:A *621:12 0.000716966
11 *1949:A *621:12 0.000144784
12 *137:16 *621:12 0
*RES
1 *1948:X *621:12 33.8844 
2 *621:12 *1898:A 20 
*END

*D_NET *622 0.000381369
*CONN
*I *1323:B I *D sg13cmos5l_nor3_1
*I *1949:X O *D sg13cmos5l_dlygate4sd3_1
*CAP
1 *1323:B 4.67261e-05
2 *1949:X 0.000103845
3 *622:8 0.000150571
4 *1323:B *680:43 8.02267e-05
5 *1323:C *1323:B 0
*RES
1 *1949:X *622:8 41.0918 
2 *622:8 *1323:B 40.5356 
*END

*D_NET *623 0.00447535
*CONN
*I *1899:A I *D sg13cmos5l_buf_1
*I *1950:X O *D sg13cmos5l_dlygate4sd3_1
*CAP
1 *1899:A 0
2 *1950:X 0.00105562
3 *623:8 0.00105562
4 *623:8 *1777:RESET_B 0.00014461
5 *623:8 *639:39 0.000732312
6 *623:8 *639:50 0.00027466
7 *623:8 *668:30 0.000112563
8 *623:8 *668:41 0.000793135
9 *623:8 *733:10 0
10 *11:12 *623:8 0.000306832
*RES
1 *1950:X *623:8 31.9789 
2 *623:8 *1899:A 20 
*END

*D_NET *624 0.00241989
*CONN
*I *1892:A I *D sg13cmos5l_buf_1
*I *1951:X O *D sg13cmos5l_dlygate4sd3_1
*CAP
1 *1892:A 0.000291918
2 *1951:X 0.000524922
3 *624:12 0.00081684
4 *1892:A *638:98 4.77425e-05
5 *1892:A *660:20 8.00842e-05
6 *624:12 *1401:A 0
7 *624:12 *638:104 0.000288598
8 *624:12 *663:46 4.77425e-05
9 *624:12 *663:55 0.000144706
10 *1360:A1 *624:12 0
11 *1406:A1 *1892:A 4.77425e-05
12 *1955:A *624:12 0
13 *162:54 *624:12 0.000129592
14 *163:50 *624:12 0
15 *174:31 *624:12 0
16 *203:41 *624:12 0
17 *211:8 *1892:A 0
*RES
1 *1951:X *624:12 45.562 
2 *624:12 *1892:A 42.6162 
*END

*D_NET *625 0.00491157
*CONN
*I *1887:A I *D sg13cmos5l_buf_1
*I *1513:A I *D sg13cmos5l_xnor2_1
*I *1952:X O *D sg13cmos5l_dlygate4sd3_1
*CAP
1 *1887:A 0
2 *1513:A 0
3 *1952:X 0.000408986
4 *625:32 0.00071729
5 *625:14 0.000817297
6 *625:10 0.000508994
7 *625:14 *682:8 0
8 *625:32 *1513:B 1.54008e-05
9 *625:32 *655:12 0.000143932
10 *625:32 *691:12 0.000229212
11 *1245:A *625:32 0
12 *1509:B *625:32 5.08996e-05
13 *1599:B *625:32 0.000237325
14 *1599:C *625:32 1.54008e-05
15 *1758:A2 *625:32 0.000662358
16 *1830:CLK *625:10 0
17 *1864:A *625:32 0
18 *1875:A *625:32 0.000396084
19 *315:14 *625:32 0
20 *321:31 *625:32 0
21 *586:86 *625:10 0.000708396
*RES
1 *1952:X *625:10 44.0685 
2 *625:10 *625:14 20.9682 
3 *625:14 *625:32 48.6005 
4 *625:32 *1513:A 20 
5 *625:14 *1887:A 20 
*END

*D_NET *626 0.0105117
*CONN
*I *1889:A I *D sg13cmos5l_buf_1
*I *1888:A I *D sg13cmos5l_buf_1
*I *1953:X O *D sg13cmos5l_dlygate4sd3_1
*CAP
1 *1889:A 0
2 *1888:A 0
3 *1953:X 0
4 *626:45 0.000658224
5 *626:37 0.00115993
6 *626:31 0.000902106
7 *626:20 0.000809521
8 *626:12 0.00159403
9 *626:4 0.00118491
10 *626:12 *678:53 0
11 *626:12 *686:10 0
12 *626:20 *1802:CLK 0
13 *626:20 *656:12 0.000234214
14 *626:20 *762:42 0
15 *626:20 *763:35 0
16 *626:31 *637:114 0.000505201
17 *626:45 *658:14 0
18 *626:45 *660:38 0.000219938
19 *626:45 *663:14 8.00522e-05
20 *626:45 *665:38 0.000177077
21 *626:45 *681:22 0
22 *1386:A1 *626:37 0.000862539
23 *1464:B2 *626:12 0
24 *1855:A *626:12 0
25 *25:16 *626:12 0.000392941
26 *25:24 *626:20 0.000572036
27 *161:29 *626:31 0
28 *161:43 *626:45 0
29 *170:27 *626:45 0
30 *191:14 *626:12 0
31 *191:20 *626:12 0.000393771
32 *193:33 *626:37 2.19989e-05
33 *193:44 *626:37 0.000371454
34 *196:24 *626:12 0.000371746
35 *247:10 *626:20 0
36 *295:10 *626:20 0
37 *544:128 *626:37 0
38 *565:12 *626:12 0
*RES
1 *1953:X *626:4 20 
2 *626:4 *626:12 48.2709 
3 *626:12 *626:20 49.2597 
4 *626:20 *1888:A 20 
5 *626:4 *626:31 44.6453 
6 *626:31 *626:37 45.7886 
7 *626:37 *626:45 44.6599 
8 *626:45 *1889:A 20 
*END

*D_NET *627 0.00287984
*CONN
*I *1897:A I *D sg13cmos5l_buf_1
*I *1954:X O *D sg13cmos5l_dlygate4sd3_1
*CAP
1 *1897:A 0
2 *1954:X 0
3 *627:12 0.00100568
4 *627:6 0.00100568
5 *627:12 *641:48 8.00842e-05
6 *627:12 *666:12 0
7 *627:12 *666:92 0
8 *627:12 *735:12 0
9 *627:12 *737:14 0
10 *135:36 *627:12 0
11 *135:100 *627:12 0
12 *143:16 *627:12 0
13 *160:43 *627:12 0
14 *187:8 *627:12 0.000128248
15 *247:22 *627:12 0
16 *267:8 *627:12 0
17 *268:8 *627:12 0.000660142
18 *601:10 *627:12 0
*RES
1 *1954:X *627:6 40 
2 *627:6 *627:12 30.7738 
3 *627:12 *1897:A 20 
*END

*D_NET *628 0.00324234
*CONN
*I *1894:A I *D sg13cmos5l_buf_1
*I *1955:X O *D sg13cmos5l_dlygate4sd3_1
*CAP
1 *1894:A 6.02228e-05
2 *1955:X 0.000418439
3 *628:10 0.000478662
4 *628:10 *636:93 0
5 *628:10 *660:20 0.00017706
6 *628:10 *663:8 0.000556585
7 *1890:A *628:10 0.000177032
8 *162:54 *628:10 0.00039332
9 *183:10 *628:10 0.000981017
*RES
1 *1955:X *628:10 46.7259 
2 *628:10 *1894:A 40.5356 
*END

*D_NET *629 0.00297982
*CONN
*I *1881:A I *D sg13cmos5l_buf_1
*I *1956:X O *D sg13cmos5l_dlygate4sd3_1
*CAP
1 *1881:A 0
2 *1956:X 7.02008e-05
3 *629:16 0.00119232
4 *629:8 0.00126252
5 *629:16 *1880:A 0.000112029
6 *629:16 *648:8 0
7 *629:16 *648:53 0
8 *47:10 *629:16 0.000342745
9 *480:8 *629:16 0
10 *482:8 *629:16 0
11 *605:8 *629:16 0
*RES
1 *1956:X *629:8 40.5356 
2 *629:8 *629:16 31.0313 
3 *629:16 *1881:A 20 
*END

*D_NET *630 0.0170813
*CONN
*I *1521:C I *D sg13cmos5l_nand3_1
*I *1522:B I *D sg13cmos5l_nand2_1
*I *1520:B I *D sg13cmos5l_nand2_1
*I *1566:B I *D sg13cmos5l_nor2_1
*I *1527:C I *D sg13cmos5l_nand3_1
*I *1526:B I *D sg13cmos5l_nand2_1
*I *1531:B I *D sg13cmos5l_nand2_1
*I *1565:A2 I *D sg13cmos5l_a21oi_1
*I *1868:X O *D sg13cmos5l_buf_1
*CAP
1 *1521:C 0
2 *1522:B 0
3 *1520:B 0.000254509
4 *1566:B 0
5 *1527:C 0.000112321
6 *1526:B 0.000101091
7 *1531:B 0
8 *1565:A2 0.000103905
9 *1868:X 0.000460168
10 *630:134 0.000333435
11 *630:119 0.000592389
12 *630:102 0.000900867
13 *630:87 0.000811621
14 *630:50 0.000491686
15 *630:40 0.000877011
16 *630:36 0.000757044
17 *630:30 0.000853045
18 *630:12 0.000495736
19 *1520:B *1520:A 0
20 *1520:B *647:74 0.000183049
21 *1527:C *1527:B 1.77739e-05
22 *1565:A2 *654:156 8.00842e-05
23 *630:12 *635:14 0
24 *630:36 *654:142 0.000875324
25 *630:40 *652:60 0.000183193
26 *630:50 *649:79 0
27 *630:50 *706:77 0.000288527
28 *630:87 *654:142 0.000374478
29 *630:102 *1524:B 0
30 *630:119 *1524:A 0.000177126
31 *630:119 *758:26 0
32 *630:134 *1520:A 0
33 *630:134 *758:26 0
34 *630:134 *759:12 1.54556e-05
35 *1496:B *630:12 0
36 *1546:A *1520:B 0
37 *1546:A *630:102 7.90195e-05
38 *1546:B *630:134 0
39 *1548:A1 *630:87 0
40 *1548:A1 *630:102 1.54008e-05
41 *1566:A *630:87 0
42 *1592:A2 *630:12 4.74263e-05
43 *1592:A2 *630:30 0.000110935
44 *1656:B *1527:C 7.9046e-05
45 *1662:A2 *630:87 0.000176966
46 *1666:A *630:102 4.77534e-05
47 *1670:A *630:50 0.000112558
48 *1670:B *630:50 0.000337594
49 *301:8 *630:12 0.000236329
50 *311:53 *1527:C 0
51 *325:14 *630:119 7.97663e-05
52 *338:82 *630:40 0.000862244
53 *338:82 *630:50 0.000290851
54 *342:18 *630:12 4.74263e-05
55 *342:18 *630:30 0.000110935
56 *346:14 *630:36 0.000450009
57 *346:14 *630:40 0
58 *348:22 *630:12 0.000721557
59 *348:22 *630:87 0
60 *349:6 *630:102 0.000144388
61 *350:12 *630:102 1.54556e-05
62 *369:10 *630:87 0.000143932
63 *370:19 *630:36 0.00103628
64 *370:19 *630:87 0.000396629
65 *371:16 *630:119 0
66 *372:10 *630:36 0.000447567
67 *373:24 *630:119 0
68 *407:33 *1565:A2 4.75539e-05
69 *409:12 *1565:A2 0.000176921
70 *428:51 *630:40 0.000185245
71 *428:51 *630:50 0.00012984
72 *450:14 *630:50 0.000234718
73 *453:8 *630:12 0
74 *454:17 *630:50 0.000176559
75 *459:8 *630:12 0.000238452
76 *462:12 *1520:B 0
77 *467:10 *630:50 8.0216e-05
78 *563:83 *630:134 0.000304577
79 *574:43 *1520:B 0.000177345
80 *585:56 *630:134 0
*RES
1 *1868:X *630:12 45.4384 
2 *630:12 *1565:A2 41.1845 
3 *1868:X *630:30 40.7519 
4 *630:30 *630:36 7.4469 
5 *630:36 *630:40 4.3775 
6 *630:40 *630:50 46.0255 
7 *630:50 *1531:B 40 
8 *630:40 *1526:B 40.7519 
9 *630:36 *1527:C 40.9682 
10 *630:30 *630:87 25.5517 
11 *630:87 *1566:B 20 
12 *630:87 *630:102 23.7183 
13 *630:102 *1520:B 42.7707 
14 *630:102 *630:119 22.7707 
15 *630:119 *1522:B 20 
16 *630:119 *630:134 43.5226 
17 *630:134 *1521:C 20 
*END

*D_NET *631 0.0036295
*CONN
*I *1880:A I *D sg13cmos5l_buf_1
*I *1957:X O *D sg13cmos5l_dlygate4sd3_1
*CAP
1 *1880:A 0.000255553
2 *1957:X 0.000847167
3 *631:14 0.00110272
4 *631:14 *647:42 0
5 *631:14 *648:53 0.000394566
6 *631:14 *717:16 0
7 *631:14 *752:8 0.000607939
8 *382:10 *631:14 0.000128248
9 *481:8 *631:14 0.00018128
10 *629:16 *1880:A 0.000112029
*RES
1 *1957:X *631:14 49.7438 
2 *631:14 *1880:A 41.8334 
*END

*D_NET *632 0.0107082
*CONN
*I *1709:A I *D sg13cmos5l_xnor2_1
*I *1708:A I *D sg13cmos5l_xor2_1
*I *1877:A I *D sg13cmos5l_buf_1
*I *1958:X O *D sg13cmos5l_dlygate4sd3_1
*CAP
1 *1709:A 0
2 *1708:A 0.000467388
3 *1877:A 0
4 *1958:X 0
5 *632:29 0.000891722
6 *632:14 0.00105332
7 *632:6 0.00147765
8 *1708:A *645:72 0
9 *632:14 *1774:RESET_B 0
10 *632:14 *642:68 0.000928303
11 *632:14 *642:76 0.000129595
12 *632:14 *642:86 0.00209864
13 *632:14 *643:67 0
14 *632:29 *1722:A1 7.51285e-05
15 *632:29 *642:54 0.000167983
16 *632:29 *642:68 0.000286974
17 *1308:A1 *632:14 0
18 *1702:B *1708:A 0.000112689
19 *1702:B *632:29 0.000184858
20 *1708:B *1708:A 1.54008e-05
21 *1709:B *1708:A 8.0216e-05
22 *1710:B1 *1708:A 0
23 *1710:A2 *1708:A 0
24 *84:10 *632:14 0.000236057
25 *84:10 *632:29 0.000500248
26 *127:16 *632:14 0
27 *358:30 *1708:A 7.53965e-05
28 *358:38 *1708:A 0
29 *398:10 *1708:A 0
30 *495:8 *632:29 4.78356e-05
31 *495:24 *632:29 0
32 *500:8 *632:14 0.000343797
33 *505:8 *632:29 0
34 *508:8 *632:14 0.00119328
35 *511:10 *632:14 0
36 *586:139 *632:14 0
37 *589:14 *632:14 0.000341707
*RES
1 *1958:X *632:6 40 
2 *632:6 *632:14 37.0568 
3 *632:14 *1877:A 20 
4 *632:6 *632:29 25.2633 
5 *632:29 *1708:A 24.5526 
6 *632:29 *1709:A 20 
*END

*D_NET *633 0.00347118
*CONN
*I *1882:A I *D sg13cmos5l_buf_1
*I *1959:X O *D sg13cmos5l_dlygate4sd3_1
*CAP
1 *1882:A 0
2 *1959:X 0.000178232
3 *633:12 0.00133562
4 *633:8 0.00151385
5 *633:8 *1539:A 0
6 *633:8 *653:14 0
7 *633:8 *695:74 8.01612e-05
8 *633:12 *649:36 0
9 *1280:C *633:8 0
10 *1539:B *633:12 7.54629e-05
11 *45:8 *633:12 0.000287845
12 *110:18 *633:12 0
13 *342:12 *633:8 0
14 *457:8 *633:12 0
15 *560:8 *633:12 0
*RES
1 *1959:X *633:8 41.6171 
2 *633:8 *633:12 30.9798 
3 *633:12 *1882:A 20 
*END

*D_NET *634 0.00147306
*CONN
*I *1731:A_N I *D sg13cmos5l_nand3b_1
*I *1960:X O *D sg13cmos5l_dlygate4sd3_1
*CAP
1 *1731:A_N 0.000104001
2 *1960:X 0.000281313
3 *634:10 0.000385314
4 *634:10 *1751:A_N 0
5 *310:18 *634:10 0.000557736
6 *321:20 *1731:A_N 0.000144697
7 *536:8 *634:10 0
8 *595:37 *1731:A_N 0
*RES
1 *1960:X *634:10 43.1106 
2 *634:10 *1731:A_N 40.9682 
*END

*D_NET *635 0.0157185
*CONN
*I *1564:A2 I *D sg13cmos5l_a21oi_1
*I *1604:A2 I *D sg13cmos5l_o21ai_1
*I *1572:C I *D sg13cmos5l_nor3_1
*I *1533:C I *D sg13cmos5l_nor3_1
*I *1573:D I *D sg13cmos5l_nor4_1
*I *1868:A I *D sg13cmos5l_buf_1
*I *1525:C I *D sg13cmos5l_nand3_1
*I *1524:B I *D sg13cmos5l_nand2_1
*I *1869:X O *D sg13cmos5l_buf_1
*CAP
1 *1564:A2 0.000558192
2 *1604:A2 4.95443e-05
3 *1572:C 0
4 *1533:C 0
5 *1573:D 5.80122e-05
6 *1868:A 0
7 *1525:C 0.000203103
8 *1524:B 0.00039399
9 *1869:X 0
10 *635:88 0.000317974
11 *635:78 0.000450883
12 *635:65 0.000435353
13 *635:57 0.000872282
14 *635:22 0.00135565
15 *635:14 0.00133882
16 *635:8 0.00146549
17 *635:6 0.000865112
18 *1524:B *1525:B 0
19 *1525:C *1525:B 8.00842e-05
20 *1564:A2 *636:20 0.000128563
21 *1564:A2 *636:33 0.000106392
22 *1573:D *1604:A1 4.77425e-05
23 *635:8 *636:20 0.000129186
24 *635:8 *720:14 0
25 *635:14 *673:88 0.000557015
26 *635:22 *711:14 0.000701146
27 *635:57 *672:24 0
28 *635:57 *672:105 0
29 *635:65 *1604:A1 7.53765e-05
30 *635:78 *1572:B 0.000183601
31 *635:78 *1604:A1 5.42181e-05
32 *635:88 *1572:B 8.00842e-05
33 *1231:A *1564:A2 0
34 *1258:A *1573:D 0
35 *1502:B1 *1564:A2 0
36 *1533:B *635:88 1.3872e-05
37 *1546:A *1524:B 0
38 *1546:B *1524:B 0.000112815
39 *1547:B *1524:B 0
40 *1547:A *1525:C 0
41 *1547:A *635:22 0
42 *1564:A1 *1564:A2 1.54008e-05
43 *1619:B2 *635:88 0.000112426
44 *92:20 *635:57 0.000309043
45 *97:35 *635:57 0.000185245
46 *180:24 *1525:C 0.000184996
47 *202:52 *1564:A2 0
48 *202:67 *1564:A2 0
49 *202:67 *635:8 0
50 *301:8 *1564:A2 5.39693e-05
51 *301:8 *635:8 0.000960176
52 *301:8 *635:14 0.0001292
53 *312:64 *635:65 0
54 *332:14 *1525:C 0
55 *335:8 *1564:A2 0
56 *336:10 *635:88 4.77425e-05
57 *337:18 *1564:A2 0
58 *338:82 *635:14 0
59 *349:6 *1524:B 0
60 *350:12 *1524:B 0.000143171
61 *351:8 *1525:C 0
62 *351:8 *635:22 0
63 *371:16 *1525:C 8.00842e-05
64 *372:10 *635:14 0
65 *375:14 *635:78 0
66 *405:8 *635:88 0.000128528
67 *413:10 *1564:A2 0.000112695
68 *453:8 *635:14 0.000288331
69 *521:36 *1564:A2 0
70 *544:88 *635:22 0
71 *571:16 *635:78 0.00018381
72 *571:16 *635:88 0
73 *571:39 *635:8 0.000235807
74 *571:39 *635:14 7.47964e-05
75 *571:39 *635:65 0.000278486
76 *572:27 *635:88 0.000501078
77 *572:37 *635:57 0.000799985
78 *572:37 *635:65 7.65602e-05
79 *572:37 *635:78 0.000182463
80 *576:48 *635:22 0
81 *630:12 *635:14 0
82 *630:102 *1524:B 0
*RES
1 *1869:X *635:6 40 
2 *635:6 *635:8 4.5526 
3 *635:8 *635:14 6.7053 
4 *635:14 *635:22 47.4675 
5 *635:22 *1524:B 43.5638 
6 *635:22 *1525:C 42.1218 
7 *635:14 *1868:A 40 
8 *635:8 *635:57 46.1388 
9 *635:57 *635:65 42.6162 
10 *635:65 *1573:D 40.5356 
11 *635:65 *635:78 22.0806 
12 *635:78 *635:88 43.8316 
13 *635:88 *1533:C 20 
14 *635:78 *1572:C 20 
15 *635:57 *1604:A2 40.4274 
16 *635:6 *1564:A2 45.562 
*END

*D_NET *636 0.0216721
*CONN
*I *1435:A I *D sg13cmos5l_nand2_1
*I *1397:B I *D sg13cmos5l_nand3_1
*I *1409:A2 I *D sg13cmos5l_a21oi_1
*I *1428:B I *D sg13cmos5l_nand3_1
*I *1424:A1 I *D sg13cmos5l_a21oi_1
*I *1869:A I *D sg13cmos5l_buf_1
*I *1870:X O *D sg13cmos5l_buf_1
*CAP
1 *1435:A 6.00825e-05
2 *1397:B 0.000167233
3 *1409:A2 0
4 *1428:B 0
5 *1424:A1 0
6 *1869:A 0
7 *1870:X 0.000645106
8 *636:107 0.000713946
9 *636:93 0.00132562
10 *636:85 0.000778902
11 *636:83 0.000291212
12 *636:75 0.000832897
13 *636:58 2.60565e-05
14 *636:52 0.000576336
15 *636:45 0.000215772
16 *636:37 0.000658204
17 *636:33 0.00333554
18 *636:20 0.00360689
19 *636:20 *720:8 0.000235567
20 *636:33 *1529:B1 0.000235055
21 *636:33 *1738:B 0
22 *636:33 *656:64 0
23 *636:33 *664:29 0
24 *636:33 *674:98 0
25 *636:33 *700:10 0
26 *636:33 *701:8 0
27 *636:33 *720:8 0.000340867
28 *636:33 *755:10 0.000267483
29 *636:33 *761:8 0
30 *636:37 *637:114 0
31 *636:37 *667:42 0.00031114
32 *636:52 *667:42 6.56478e-05
33 *636:58 *1428:A 4.77425e-05
34 *636:75 *637:114 0
35 *636:75 *666:32 0.00023803
36 *636:93 *663:8 0.000556585
37 *636:93 *665:38 0
38 *636:107 *665:61 0.000272867
39 *636:107 *740:71 0.000368865
40 *1365:A *636:33 0.000290042
41 *1386:A1 *636:45 0.000183956
42 *1396:A1 *1397:B 8.00842e-05
43 *1397:C *1397:B 0.000112426
44 *1408:A *636:107 0.000768209
45 *1409:A1 *636:107 1.54008e-05
46 *1424:A2 *636:45 1.54008e-05
47 *1427:C *636:75 0
48 *1428:C *636:58 4.77425e-05
49 *1436:B *636:93 0
50 *1437:A2 *636:75 0
51 *1439:A2 *636:93 0
52 *1497:B1 *636:20 0.000111344
53 *1564:A2 *636:20 0.000128563
54 *1564:A2 *636:33 0.000106392
55 *1611:A2 *636:20 1.69409e-05
56 *1611:A1 *636:20 4.78359e-05
57 *1741:B *636:33 0
58 *1744:A1 *636:33 0
59 *1870:A *636:20 4.77425e-05
60 *55:10 *636:33 0
61 *70:10 *636:33 0
62 *135:42 *636:107 0.00114522
63 *160:10 *636:33 0
64 *160:87 *636:75 4.77425e-05
65 *161:29 *636:33 0.000215224
66 *161:35 *636:37 0
67 *161:90 *636:33 0.000375646
68 *165:22 *636:83 0
69 *169:12 *636:107 0.000181695
70 *170:53 *636:93 0
71 *170:64 *1397:B 0
72 *175:14 *1397:B 0.000129592
73 *175:14 *636:52 0
74 *175:14 *636:75 0
75 *175:14 *636:83 0
76 *175:14 *636:93 0.0001292
77 *180:58 *636:33 0
78 *183:10 *636:93 0
79 *193:22 *636:33 0
80 *193:58 *636:33 0
81 *202:67 *636:33 0
82 *230:10 *636:33 7.51285e-05
83 *233:16 *636:45 0.000213695
84 *234:8 *636:83 7.5374e-05
85 *237:8 *636:45 2.22559e-05
86 *256:37 *636:83 0
87 *258:37 *636:33 0
88 *274:8 *636:75 0.000234783
89 *289:8 *636:33 0
90 *290:24 *636:37 0.000182098
91 *293:10 *636:33 0
92 *364:32 *636:20 0.000257175
93 *412:12 *636:20 6.39133e-05
94 *521:36 *636:33 0
95 *527:8 *636:33 0
96 *551:12 *636:33 0
97 *556:8 *636:33 0
98 *564:12 *636:33 0
99 *619:87 *636:20 0
100 *619:101 *636:20 4.84896e-05
101 *628:10 *636:93 0
102 *635:8 *636:20 0.000129186
*RES
1 *1870:X *636:20 47.2718 
2 *636:20 *1869:A 40 
3 *636:20 *636:33 32.5995 
4 *636:33 *636:37 23.1604 
5 *636:37 *636:45 42.2454 
6 *636:45 *1424:A1 20 
7 *636:37 *636:52 0.7519 
8 *636:52 *636:58 40.3193 
9 *636:58 *1428:B 20 
10 *636:52 *636:75 45.2283 
11 *636:75 *636:83 42.7089 
12 *636:83 *636:85 20 
13 *636:85 *636:93 46.386 
14 *636:93 *636:107 30.0425 
15 *636:107 *1409:A2 20 
16 *636:85 *1397:B 41.8437 
17 *636:75 *1435:A 20.5356 
*END

*D_NET *637 0.0324103
*CONN
*I *1601:A2 I *D sg13cmos5l_a21oi_1
*I *1513:B I *D sg13cmos5l_xnor2_1
*I *1408:B I *D sg13cmos5l_nor2_1
*I *1417:A2 I *D sg13cmos5l_o21ai_1
*I *1431:C I *D sg13cmos5l_nor3_1
*I *1421:B I *D sg13cmos5l_nor4_1
*I *1407:A1 I *D sg13cmos5l_o21ai_1
*I *1574:B I *D sg13cmos5l_xnor2_1
*I *1871:X O *D sg13cmos5l_buf_1
*CAP
1 *1601:A2 0.000317817
2 *1513:B 5.37171e-05
3 *1408:B 0
4 *1417:A2 0
5 *1431:C 0
6 *1421:B 0
7 *1407:A1 7.89185e-05
8 *1574:B 0.000249711
9 *1871:X 0.000214271
10 *637:151 0.000860957
11 *637:114 0.000548963
12 *637:106 0.000919697
13 *637:98 0.000658423
14 *637:84 0.000791013
15 *637:72 0.000587641
16 *637:66 0.000620309
17 *637:45 0.00132773
18 *637:41 0.00370912
19 *637:39 0.00367327
20 *637:33 0.000827567
21 *637:29 0.00186738
22 *637:25 0.00238445
23 *637:10 0.000534804
24 *637:29 *672:24 0
25 *637:29 *672:105 0
26 *637:29 *672:126 0
27 *637:29 *695:20 0
28 *637:29 *695:26 0
29 *637:39 *672:126 0
30 *637:41 *702:10 0
31 *637:41 *702:16 0
32 *637:45 *1344:B 0.00014463
33 *637:45 *696:8 7.94055e-05
34 *637:66 *681:22 0
35 *637:84 *1417:B1 1.54008e-05
36 *637:84 *1436:A 0
37 *637:98 *1417:B1 0.000149274
38 *637:106 *638:8 0.000449127
39 *637:114 *638:27 0
40 *637:114 *668:78 0
41 *1405:B1 *637:45 0
42 *1407:A2 *637:45 0
43 *1408:A *637:84 0.000208621
44 *1417:A1 *637:84 0
45 *1417:A1 *637:98 0.00027326
46 *1421:A *637:114 0.000112486
47 *1421:C *637:114 8.01445e-05
48 *1432:B1 *637:98 0
49 *1437:A1 *637:84 0.000213409
50 *1437:B1 *637:84 0.000208615
51 *1443:B *637:66 0.000144583
52 *1443:A_N *1407:A1 7.31538e-06
53 *1443:A_N *637:66 0
54 *1448:A *637:84 0
55 *1474:B1 *637:66 0.000344271
56 *1509:B *1513:B 8.00842e-05
57 *1565:B1 *637:10 0
58 *1574:A *1574:B 8.0194e-05
59 *1601:B1 *1601:A2 8.00842e-05
60 *1830:CLK *637:41 0
61 *1867:A *637:33 0.000395248
62 *3:9 *637:41 0
63 *23:16 *637:66 8.07772e-05
64 *98:12 *637:151 0.000232679
65 *154:10 *637:45 0
66 *155:36 *637:41 0
67 *155:42 *637:45 0
68 *165:16 *637:98 0.00019333
69 *165:16 *637:106 0.00011253
70 *172:20 *637:114 0.000474661
71 *181:12 *637:106 0
72 *188:10 *637:106 0.00103732
73 *194:8 *637:98 1.54008e-05
74 *194:8 *637:106 0.000112048
75 *203:18 *637:29 0.00037374
76 *204:8 *637:151 0.000131027
77 *221:27 *637:41 0
78 *243:8 *637:98 0
79 *252:10 *637:66 0.000272878
80 *256:18 *637:98 0.000128654
81 *256:24 *637:66 8.09323e-05
82 *258:62 *1601:A2 0.000633162
83 *258:74 *1601:A2 0.000185245
84 *258:74 *637:151 0.000211669
85 *274:8 *637:106 0
86 *285:10 *637:66 0.00039668
87 *302:12 *1601:A2 0.000130618
88 *304:8 *1601:A2 0.000291888
89 *307:65 *637:39 0
90 *310:22 *637:33 7.52158e-05
91 *310:28 *637:33 0.000450225
92 *312:12 *637:39 0
93 *312:33 *637:33 0.000107498
94 *321:31 *637:39 0
95 *335:10 *637:25 0.000238031
96 *335:10 *637:151 0.00131091
97 *338:35 *637:25 0
98 *373:12 *637:29 0.0008694
99 *390:8 *1574:B 8.02431e-05
100 *390:8 *637:10 1.54008e-05
101 *409:12 *637:10 1.54556e-05
102 *563:59 *637:41 0
103 *573:31 *1574:B 0
104 *573:48 *1574:B 4.76345e-05
105 *573:48 *637:10 0
106 *573:65 *637:10 7.94353e-05
107 *586:18 *637:151 0.000213065
108 *586:101 *637:41 0
109 *612:35 *637:151 0
110 *625:32 *1513:B 1.54008e-05
111 *626:31 *637:114 0.000505201
112 *636:37 *637:114 0
113 *636:75 *637:114 0
*RES
1 *1871:X *637:10 22.0703 
2 *637:10 *1574:B 22.5029 
3 *637:10 *637:25 21.0918 
4 *637:25 *637:29 39.3537 
5 *637:29 *637:33 22.3278 
6 *637:33 *637:39 46.8713 
7 *637:39 *637:41 31.003 
8 *637:41 *637:45 26.1909 
9 *637:45 *1407:A1 20.8317 
10 *637:45 *637:66 46.5611 
11 *637:66 *637:72 40.7519 
12 *637:72 *637:84 5.5002 
13 *637:84 *637:98 43.4196 
14 *637:98 *637:106 45.5517 
15 *637:106 *637:114 46.4787 
16 *637:114 *1421:B 20 
17 *637:98 *1431:C 20 
18 *637:84 *1417:A2 20 
19 *637:72 *1408:B 20 
20 *637:33 *1513:B 40.5356 
21 *637:25 *637:151 47.4366 
22 *637:151 *1601:A2 44.5629 
*END

*D_NET *638 0.0118618
*CONN
*I *1434:A1 I *D sg13cmos5l_a21oi_1
*I *1358:A I *D sg13cmos5l_nand2_1
*I *1402:S I *D sg13cmos5l_mux2_1
*I *1374:B2 I *D sg13cmos5l_a22oi_1
*I *1385:A I *D sg13cmos5l_and2_1
*I *1379:A1 I *D sg13cmos5l_a22oi_1
*I *1386:S I *D sg13cmos5l_mux2_1
*I *1364:A1 I *D sg13cmos5l_a21o_1
*I *1872:X O *D sg13cmos5l_buf_1
*CAP
1 *1434:A1 3.83236e-05
2 *1358:A 7.25045e-05
3 *1402:S 0
4 *1374:B2 0
5 *1385:A 0
6 *1379:A1 0
7 *1386:S 0.000100906
8 *1364:A1 0.000168751
9 *1872:X 0.000287271
10 *638:104 5.42418e-05
11 *638:98 0.000293469
12 *638:90 0.000437802
13 *638:83 0.000262455
14 *638:75 0.000293852
15 *638:61 0.00018487
16 *638:51 0.000387156
17 *638:45 0.000520784
18 *638:27 0.000519967
19 *638:8 0.000675729
20 *638:27 *1891:A 0.000127878
21 *638:27 *660:153 0
22 *638:45 *661:104 0.000182626
23 *638:45 *666:32 0.000450473
24 *638:51 *660:26 0.00027343
25 *638:51 *663:16 4.78743e-05
26 *638:51 *663:28 0.000225913
27 *638:61 *657:12 0.000504127
28 *638:61 *660:26 1.54008e-05
29 *638:61 *660:38 2.25909e-05
30 *638:61 *663:28 4.77537e-05
31 *638:75 *660:26 0.000111837
32 *638:75 *663:16 0
33 *638:83 *663:46 0.000235065
34 *638:90 *657:12 0
35 *638:98 *665:38 0
36 *1360:A1 *638:104 0.000288598
37 *1364:A2 *1364:A1 8.16242e-05
38 *1374:A2 *638:90 4.77425e-05
39 *1386:A1 *638:27 0.000340368
40 *1402:A0 *638:98 0
41 *1402:A1 *638:98 1.54008e-05
42 *1434:A2 *1434:A1 6.48152e-05
43 *1434:A2 *638:75 4.77425e-05
44 *1434:A2 *638:83 0.000343064
45 *1892:A *638:98 4.77425e-05
46 *87:16 *638:45 0.000396255
47 *162:54 *638:98 0.000446597
48 *165:16 *1434:A1 8.0216e-05
49 *165:16 *638:75 0.000209544
50 *170:18 *638:61 4.77425e-05
51 *170:53 *638:83 0
52 *170:80 *1364:A1 8.00842e-05
53 *181:12 *638:45 0
54 *181:12 *638:51 0
55 *183:8 *1358:A 9.7025e-05
56 *183:8 *638:83 4.77425e-05
57 *183:8 *638:90 0.000194105
58 *188:10 *638:27 0
59 *188:10 *638:61 0
60 *188:37 *638:27 7.65627e-05
61 *203:41 *638:98 0
62 *209:24 *638:61 4.77425e-05
63 *238:12 *638:61 0.000611625
64 *256:10 *638:45 7.5374e-05
65 *256:10 *638:51 0.000130532
66 *273:12 *1386:S 8.0216e-05
67 *274:8 *638:8 0.000446911
68 *274:8 *638:27 0.000235658
69 *290:14 *638:27 0
70 *544:128 *638:27 0
71 *624:12 *638:104 0.000288598
72 *637:106 *638:8 0.000449127
73 *637:114 *638:27 0
*RES
1 *1872:X *638:8 42.0806 
2 *638:8 *1364:A1 41.4008 
3 *638:8 *638:27 44.083 
4 *638:27 *1386:S 40.9682 
5 *1872:X *638:45 43.3166 
6 *638:45 *638:51 22.4308 
7 *638:51 *638:61 43.4608 
8 *638:61 *1379:A1 20 
9 *638:51 *1385:A 20 
10 *638:45 *638:75 21.4008 
11 *638:75 *638:83 42.1527 
12 *638:83 *1374:B2 20 
13 *638:83 *638:90 1.4008 
14 *638:90 *638:98 42.8325 
15 *638:98 *638:104 41.339 
16 *638:104 *1402:S 20 
17 *638:90 *1358:A 20.7519 
18 *638:75 *1434:A1 20.5356 
*END

*D_NET *639 0.0195228
*CONN
*I *1335:A I *D sg13cmos5l_nor3_1
*I *1338:A I *D sg13cmos5l_nor3_1
*I *1332:A I *D sg13cmos5l_nor3_1
*I *1326:A I *D sg13cmos5l_nor3_1
*I *1323:A I *D sg13cmos5l_nor3_1
*I *1317:A I *D sg13cmos5l_nor3_1
*I *1318:B1 I *D sg13cmos5l_a21oi_1
*I *1492:B I *D sg13cmos5l_nor2_1
*I *1873:X O *D sg13cmos5l_buf_1
*CAP
1 *1335:A 0.000581735
2 *1338:A 0.000563531
3 *1332:A 0
4 *1326:A 0
5 *1323:A 4.85072e-05
6 *1317:A 0.000387064
7 *1318:B1 0
8 *1492:B 2.41961e-05
9 *1873:X 0.000469455
10 *639:112 0.00144361
11 *639:101 0.000167338
12 *639:93 0.00144075
13 *639:86 0.00140136
14 *639:75 0.00120687
15 *639:50 0.00158713
16 *639:39 0.00132793
17 *639:10 0.00135359
18 *1317:A *1388:A1 0
19 *1317:A *659:14 9.65759e-05
20 *1317:A *688:37 0
21 *1323:A *680:43 4.7885e-05
22 *1335:A *1923:A 0
23 *1338:A *740:18 0.00018211
24 *639:10 *641:10 0
25 *639:10 *662:8 0
26 *639:10 *668:10 0
27 *639:10 *688:16 0.000447182
28 *639:39 *1927:A 0
29 *639:39 *662:8 0
30 *639:50 *1388:A1 0
31 *639:50 *1927:A 0
32 *639:50 *688:37 0
33 *639:50 *733:10 0
34 *639:75 *651:22 0.000112486
35 *639:75 *680:43 0
36 *639:86 *651:22 0
37 *639:86 *680:43 0
38 *639:86 *680:50 0
39 *639:93 *651:22 0
40 *639:93 *651:28 0.000920276
41 *639:93 *680:61 0
42 *639:93 *680:76 0
43 *639:93 *680:85 0
44 *639:101 *722:8 0.000181192
45 *639:101 *739:14 0
46 *639:112 *651:28 0.000112289
47 *639:112 *739:14 0.000394151
48 vctrl_out *639:39 0
49 *1324:A *639:101 0
50 *1331:B *1335:A 6.48368e-05
51 *1332:C *639:112 0
52 *1335:B *1335:A 0.000144527
53 *1335:C *1335:A 0
54 *1388:B1 *1317:A 0
55 *1777:D *639:39 0.000304299
56 *1783:D *1335:A 0
57 *1784:D *639:101 4.78521e-05
58 *11:12 *639:39 0
59 *15:8 *1317:A 0.000236436
60 *16:8 *1317:A 0
61 *20:8 *639:101 0.000234311
62 *22:10 *1338:A 7.9947e-05
63 *136:8 *639:10 0
64 *137:16 *639:50 0
65 *141:10 *639:75 0.000242154
66 *141:10 *639:86 0
67 *143:16 *639:93 0
68 *144:12 *1335:A 0.000209747
69 *147:8 *1335:A 0.000120174
70 *147:12 *1338:A 0
71 *147:27 *1338:A 0.00135359
72 *592:27 *1338:A 0.000980703
73 *623:8 *639:39 0.000732312
74 *623:8 *639:50 0.00027466
*RES
1 *1873:X *639:10 44.8719 
2 *639:10 *1492:B 40.3193 
3 *639:10 *639:39 29.5018 
4 *639:39 *1318:B1 20 
5 *639:39 *639:50 25.15 
6 *639:50 *1317:A 44.1895 
7 *639:50 *639:75 27.2821 
8 *639:75 *1323:A 20.6695 
9 *639:75 *639:86 3.7801 
10 *639:86 *1326:A 20 
11 *639:86 *639:93 9.8365 
12 *639:93 *639:101 42.1527 
13 *639:101 *1332:A 20 
14 *639:93 *639:112 23.5741 
15 *639:112 *1338:A 48.9816 
16 *639:112 *1335:A 45.665 
*END

*D_NET *640 0.00151874
*CONN
*I *2001:A I *D sg13cmos5l_buf_1
*I *1776:Q O *D sg13cmos5l_dfrbpq_1
*CAP
1 *2001:A 0
2 *1776:Q 0.000430113
3 *640:8 0.000430113
4 *5:8 *640:8 0
5 *99:22 *640:8 0.000658515
6 *102:8 *640:8 0
*RES
1 *1776:Q *640:8 44.7998 
2 *640:8 *2001:A 40 
*END

*D_NET *641 0.0236788
*CONN
*I *1873:A I *D sg13cmos5l_buf_1
*I *1339:B1 I *D sg13cmos5l_a21oi_1
*I *1344:A I *D sg13cmos5l_nor3_1
*I *1348:B1 I *D sg13cmos5l_a21oi_1
*I *1347:A I *D sg13cmos5l_nor3_1
*I *1505:B I *D sg13cmos5l_nand2b_1
*I *1874:X O *D sg13cmos5l_buf_1
*CAP
1 *1873:A 7.78802e-05
2 *1339:B1 0.000270827
3 *1344:A 0.000115411
4 *1348:B1 3.15144e-05
5 *1347:A 0
6 *1505:B 0
7 *1874:X 0.00038149
8 *641:82 0.00039429
9 *641:72 0.000935282
10 *641:66 0.00120586
11 *641:60 0.00112332
12 *641:52 0.00071441
13 *641:48 0.00171478
14 *641:34 0.00174208
15 *641:28 0.0028615
16 *641:10 0.00322455
17 *1339:B1 *1342:A1 0
18 *1348:B1 *1348:A1 0
19 *1873:A *679:12 0.000144894
20 *641:28 *1792:RESET_B 0
21 *641:28 *1792:D 0
22 *641:28 *1800:RESET_B 0
23 *641:28 *1802:CLK 0
24 *641:28 *661:110 8.0216e-05
25 *641:28 *678:49 0
26 *641:28 *686:10 8.01789e-05
27 *641:28 *763:18 0
28 *641:28 *763:35 0
29 *641:34 *660:153 2.25909e-05
30 *641:48 *1369:A 0
31 *641:48 *1467:A1 0.000241088
32 *641:48 *666:12 0
33 *641:48 *666:16 3.23417e-05
34 *641:48 *666:22 0.000177043
35 *641:60 *739:57 0
36 *641:60 *739:76 0.000160013
37 *641:66 *739:76 0.000396106
38 *1337:A *641:48 0
39 *1339:A1 *1339:B1 1.54008e-05
40 *1348:A2 *1348:B1 0
41 *1370:A *641:48 0
42 *1373:B *641:34 0
43 *1377:A_N *641:48 0
44 *1378:B *641:48 8.02924e-05
45 *1386:A0 *641:28 0.000208063
46 *1386:A1 *641:28 0.000111657
47 *1398:A2 *641:48 0.00034903
48 *1404:B1 *1344:A 4.35073e-05
49 *1414:A *1339:B1 0
50 *1414:B *1339:B1 6.45462e-05
51 *1414:B *641:52 8.01938e-05
52 *1414:B *641:60 0.000820974
53 *1414:B *641:66 0.000851712
54 *1415:B_N *641:66 0.000874343
55 *1418:B1 *641:28 0
56 *1418:B2 *641:28 0
57 *1419:B *641:28 0
58 *1464:B2 *641:28 0
59 *1467:B1 *641:28 0
60 *1467:B1 *641:48 8.00521e-05
61 *1477:A1 *641:82 0.000122871
62 *1507:A *641:82 0
63 *1857:A *641:48 0
64 *12:18 *641:66 0
65 *13:8 *641:72 0.000208271
66 *13:16 *641:72 0.000393221
67 *32:10 *641:28 0
68 *136:8 *641:28 0
69 *137:8 *1873:A 0.000144894
70 *147:27 *1339:B1 0
71 *147:27 *641:52 0
72 *151:21 *1339:B1 0
73 *157:8 *641:82 0
74 *157:17 *641:72 0
75 *157:27 *641:72 0
76 *161:10 *641:28 0.00023182
77 *161:23 *641:28 0
78 *173:20 *641:28 0
79 *173:20 *641:48 0
80 *182:10 *641:28 0
81 *184:6 *641:48 0
82 *185:10 *641:48 7.91347e-05
83 *186:8 *641:48 0
84 *196:24 *641:28 4.77863e-05
85 *202:103 *641:28 0
86 *214:8 *641:60 0
87 *221:16 *641:66 0
88 *223:6 *641:52 0
89 *270:41 *641:52 0
90 *273:12 *641:28 0.000272747
91 *273:20 *641:28 0
92 *276:14 *641:28 1.54008e-05
93 *276:14 *641:48 0.000318438
94 *278:14 *641:48 0
95 *281:14 *641:48 0
96 *295:10 *641:28 0.000822458
97 *307:10 *641:82 0.000393823
98 *308:16 *641:72 0
99 *310:10 *641:82 8.01609e-05
100 *565:10 *641:28 0.000209648
101 *566:27 *1348:B1 4.78521e-05
102 *567:8 *641:48 0
103 *592:14 *641:48 0.000502704
104 *627:12 *641:48 8.00842e-05
105 *639:10 *641:10 0
*RES
1 *1874:X *641:10 42.8943 
2 *641:10 *641:28 46.3165 
3 *641:28 *641:34 40.8446 
4 *641:34 *641:48 36.6557 
5 *641:48 *641:52 20.7519 
6 *641:52 *641:60 24.9749 
7 *641:60 *641:66 8.8992 
8 *641:66 *641:72 25.3663 
9 *641:72 *641:82 44.2024 
10 *641:82 *1505:B 20 
11 *641:72 *1347:A 20 
12 *641:66 *1348:B1 40.3193 
13 *641:60 *1344:A 41.0841 
14 *641:52 *1339:B1 22.6368 
15 *641:10 *1873:A 40.9682 
*END

*D_NET *642 0.0239055
*CONN
*I *1561:B2 I *D sg13cmos5l_a221oi_1
*I *1568:A I *D sg13cmos5l_nand4_1
*I *1585:A I *D sg13cmos5l_nor2_1
*I *1560:A I *D sg13cmos5l_nand2_1
*I *1722:A1 I *D sg13cmos5l_a22oi_1
*I *1715:A I *D sg13cmos5l_and2_1
*I *1305:A I *D sg13cmos5l_nor2_1
*I *1304:A I *D sg13cmos5l_nand2_1
*I *1875:X O *D sg13cmos5l_buf_1
*CAP
1 *1561:B2 4.02965e-05
2 *1568:A 0
3 *1585:A 2.49266e-05
4 *1560:A 0.000221483
5 *1722:A1 0.000485485
6 *1715:A 4.81786e-05
7 *1305:A 0
8 *1304:A 0
9 *1875:X 0.000569218
10 *642:101 0.000288448
11 *642:86 0.00102948
12 *642:76 0.000906635
13 *642:68 0.000731472
14 *642:54 0.00163071
15 *642:46 0.000752658
16 *642:44 0.000246807
17 *642:36 0.000776718
18 *642:26 0.00146691
19 *642:18 0.00157144
20 *1722:A1 *643:12 0.000234311
21 *642:26 *1751:A_N 0.000235141
22 *642:26 *684:24 0
23 *642:26 *708:41 0.000234311
24 *642:26 *758:26 0
25 *642:26 *759:38 0
26 *642:36 *684:24 0.000607713
27 *642:36 *684:30 0.000288643
28 *642:44 *1519:B 7.84876e-05
29 *642:44 *644:95 0.000128821
30 *642:54 *645:66 0.000611284
31 *642:101 *1302:B 0.000287256
32 *642:101 *671:53 0.000143549
33 *1244:A *642:18 0
34 *1561:C1 *1561:B2 1.54008e-05
35 *1561:C1 *642:18 0.000207986
36 *1599:B *642:18 0
37 *1606:A2 *642:36 0
38 *1606:B1 *642:36 0.000128186
39 *1606:B1 *642:44 0
40 *1702:A *642:54 0.000290261
41 *1707:B *1715:A 0
42 *1709:B *642:54 8.0216e-05
43 *1710:B1 *642:54 0.000112412
44 *1715:B *1715:A 8.01609e-05
45 *1722:B2 *1722:A1 0
46 *1865:A *1560:A 0
47 *1865:A *642:44 0.000112413
48 *1967:A *642:18 0
49 *84:10 *1722:A1 0
50 *128:10 *642:101 0.000287343
51 *129:8 *642:101 0.000111747
52 *311:12 *642:26 0
53 *311:18 *642:26 0
54 *311:18 *642:36 0.00028745
55 *312:33 *642:18 0.00036987
56 *312:33 *642:26 0
57 *314:29 *1722:A1 1.54008e-05
58 *317:16 *642:18 9.61659e-05
59 *322:8 *1560:A 7.51285e-05
60 *322:8 *642:54 0.000212862
61 *322:36 *1560:A 0.000266336
62 *323:23 *642:26 0
63 *358:30 *642:54 0
64 *362:16 *642:26 0
65 *363:10 *1560:A 0.000122581
66 *364:12 *1561:B2 4.77863e-05
67 *364:12 *642:26 1.54446e-05
68 *364:32 *642:26 0
69 *399:16 *642:36 7.92265e-05
70 *408:35 *642:44 0.000288747
71 *411:8 *642:26 0
72 *495:10 *642:68 0
73 *495:24 *642:68 0
74 *509:18 *642:54 0
75 *511:10 *642:68 0.000769714
76 *520:14 *1722:A1 0
77 *570:39 *1722:A1 0.000111657
78 *570:55 *642:44 0
79 *586:139 *642:76 0.000106064
80 *586:139 *642:86 0.000341534
81 *586:145 *642:86 0.00183398
82 *597:8 *642:44 0.000112426
83 *619:81 *642:26 0
84 *632:14 *642:68 0.000928303
85 *632:14 *642:76 0.000129595
86 *632:14 *642:86 0.00209864
87 *632:29 *1722:A1 7.51285e-05
88 *632:29 *642:54 0.000167983
89 *632:29 *642:68 0.000286974
*RES
1 *1875:X *642:18 26.0976 
2 *642:18 *642:26 28.3998 
3 *642:26 *642:36 26.6847 
4 *642:36 *642:44 42.9561 
5 *642:44 *642:46 20 
6 *642:46 *642:54 46.4478 
7 *642:54 *642:68 49.2494 
8 *642:68 *642:76 41.5656 
9 *642:76 *642:86 32.7102 
10 *642:86 *1304:A 20 
11 *642:86 *642:101 43.2754 
12 *642:101 *1305:A 20 
13 *642:76 *1715:A 40.5356 
14 *642:54 *1722:A1 44.5114 
15 *642:46 *1560:A 42.5544 
16 *642:36 *1585:A 20.291 
17 *642:26 *1568:A 40 
18 *642:18 *1561:B2 20.5356 
*END

*D_NET *643 0.0205665
*CONN
*I *1237:A I *D sg13cmos5l_inv_1
*I *1716:A1 I *D sg13cmos5l_a21oi_1
*I *1307:A2 I *D sg13cmos5l_a21o_1
*I *1302:B I *D sg13cmos5l_xnor2_1
*I *1308:A2 I *D sg13cmos5l_o21ai_1
*I *1582:C I *D sg13cmos5l_nor4_1
*I *1558:A I *D sg13cmos5l_nand3_1
*I *1568:C I *D sg13cmos5l_nand4_1
*I *1876:X O *D sg13cmos5l_buf_1
*CAP
1 *1237:A 8.67277e-05
2 *1716:A1 0
3 *1307:A2 4.58921e-05
4 *1302:B 0.000608237
5 *1308:A2 0.000165169
6 *1582:C 0.000419891
7 *1558:A 0.000332307
8 *1568:C 0.000394701
9 *1876:X 0.00103367
10 *643:107 0.00132255
11 *643:86 0.0010057
12 *643:71 0.000623955
13 *643:69 3.19562e-05
14 *643:67 0.000580861
15 *643:55 0.00102103
16 *643:20 0.00100228
17 *643:12 0.000955501
18 *1237:A *706:48 0.000144298
19 *1582:C *1582:B 0.000143911
20 *643:20 *684:20 0
21 *643:67 *1306:B 0
22 *643:67 *706:48 0
23 *1303:A *1302:B 0
24 *1308:B1 *1308:A2 1.54008e-05
25 *1308:B1 *643:107 0
26 *1308:A1 *1308:A2 0.000177053
27 *1308:A1 *643:86 0
28 *1309:A *643:107 0
29 *1312:A2 *643:67 0.00012816
30 *1558:B *1558:A 0.000342638
31 *1558:B *643:20 5.39693e-05
32 *1568:B *1568:C 4.78192e-05
33 *1568:D *1568:C 0.000304917
34 *1582:D *1582:C 7.97665e-05
35 *1711:A1 *1582:C 0.000249618
36 *1712:A *1237:A 7.96143e-05
37 *1716:A2 *1582:C 0
38 *1716:A2 *643:86 0
39 *1716:B1 *1308:A2 0
40 *1716:B1 *1582:C 4.78195e-05
41 *1718:B *643:86 0
42 *1719:A *643:107 0.000176284
43 *1719:B *643:67 0
44 *1722:A1 *643:12 0.000234311
45 *1725:A2 *643:12 0.00012816
46 *1725:B1 *643:12 0.00130042
47 *1920:A *1307:A2 4.70638e-05
48 *38:8 *1302:B 0.000394442
49 *39:10 *643:107 0.000609354
50 *84:10 *643:12 0
51 *128:10 *1302:B 0.000842248
52 *128:10 *643:107 5.30319e-05
53 *130:12 *643:67 0.000144089
54 *130:12 *643:107 0
55 *131:10 *643:107 0.000399086
56 *133:8 *643:107 4.77425e-05
57 *322:36 *643:20 2.25909e-05
58 *358:20 *1568:C 0
59 *361:14 *1558:A 4.74263e-05
60 *386:8 *1558:A 0
61 *498:12 *1582:C 0.000177241
62 *508:8 *643:67 0.000501875
63 *509:18 *643:67 0.000181608
64 *511:10 *643:86 1.51e-05
65 *511:10 *643:107 0
66 *514:10 *643:55 0.000234224
67 *517:12 *1558:A 0.000106064
68 *517:12 *643:20 7.51285e-05
69 *520:14 *643:12 0.000208615
70 *562:27 *643:107 0.000554491
71 *563:22 *1558:A 0.000144451
72 *563:32 *643:107 0.000453975
73 *563:83 *1568:C 0
74 *570:22 *643:12 0
75 *589:22 *1302:B 1.54008e-05
76 *590:8 *1302:B 0
77 *594:16 *643:12 0.000448023
78 *594:69 *643:55 0.000931067
79 *594:69 *643:67 0.000340288
80 *619:10 *1558:A 0
81 *632:14 *643:67 0
82 *642:101 *1302:B 0.000287256
*RES
1 *1876:X *643:12 49.0228 
2 *643:12 *643:20 43.2651 
3 *643:20 *1568:C 43.8316 
4 *643:20 *1558:A 43.5432 
5 *1876:X *643:55 44.841 
6 *643:55 *643:67 47.1482 
7 *643:67 *643:69 20 
8 *643:69 *643:71 0.3502 
9 *643:71 *1582:C 24.2333 
10 *643:71 *643:86 1.7819 
11 *643:86 *1308:A2 22.0291 
12 *643:86 *643:107 29.8159 
13 *643:107 *1302:B 47.8486 
14 *643:107 *1307:A2 40.3862 
15 *643:69 *1716:A1 20 
16 *643:55 *1237:A 40.9682 
*END

*D_NET *644 0.0139515
*CONN
*I *1581:A_N I *D sg13cmos5l_nand2b_1
*I *1519:B I *D sg13cmos5l_and2_1
*I *1596:B I *D sg13cmos5l_nor4_1
*I *1582:B I *D sg13cmos5l_nor4_1
*I *1705:A I *D sg13cmos5l_xor2_1
*I *1701:A I *D sg13cmos5l_nand2_1
*I *1298:B I *D sg13cmos5l_xor2_1
*I *1297:B I *D sg13cmos5l_and2_1
*I *1877:X O *D sg13cmos5l_buf_1
*CAP
1 *1581:A_N 0.000121337
2 *1519:B 0.000141188
3 *1596:B 0.000159134
4 *1582:B 0.000118377
5 *1705:A 0.000130847
6 *1701:A 0.000210338
7 *1298:B 6.68827e-05
8 *1297:B 0.000262746
9 *1877:X 0.000321664
10 *644:95 0.000330661
11 *644:87 0.000902823
12 *644:77 0.000846981
13 *644:64 0.000402018
14 *644:47 0.00113007
15 *644:16 0.000381776
16 *644:14 0.000504006
17 *644:8 0.0014143
18 *1519:B *1519:A 0.000176161
19 *1519:B *645:72 4.6793e-05
20 *1582:B *1582:A 1.54556e-05
21 *1582:B *684:40 0
22 *1596:B *645:72 0
23 *1596:B *645:87 4.77425e-05
24 *644:14 *1297:A 0
25 *644:16 *1297:A 0
26 *644:77 *684:36 0.00018144
27 *644:87 *645:58 0
28 *644:87 *645:66 0.000288421
29 *644:87 *684:36 0
30 *1300:A *1297:B 0
31 *1580:B *644:64 0
32 *1580:B *644:77 0.000447845
33 *1580:B *644:87 0.000287394
34 *1581:B *1581:A_N 8.00842e-05
35 *1582:C *1582:B 0.000143911
36 *1606:B1 *644:95 0.000182121
37 *1711:A1 *1582:B 0
38 *1711:A1 *1705:A 0.000149432
39 *1714:B1 *1581:A_N 0.000112426
40 *1715:B *1705:A 0
41 *66:12 *644:47 0
42 *124:8 *1297:B 0
43 *125:6 *1297:B 0
44 *125:6 *1298:B 0.000112689
45 *311:45 *644:95 0
46 *358:30 *644:87 0.000183128
47 *358:38 *644:87 0.000555005
48 *382:34 *644:64 0
49 *385:29 *644:87 0.00146104
50 *399:16 *1596:B 0
51 *410:56 *1582:B 0
52 *494:8 *1701:A 0.000337786
53 *494:14 *644:14 7.62515e-05
54 *494:14 *644:47 0.00139163
55 *495:24 *644:87 0
56 *498:12 *644:64 2.2291e-05
57 *498:12 *644:77 0
58 *499:8 *644:47 0
59 *569:8 *644:64 0
60 *586:145 *1701:A 0
61 *599:8 *644:47 0
62 *642:44 *1519:B 7.84876e-05
63 *642:44 *644:95 0.000128821
*RES
1 *1877:X *644:8 42.266 
2 *644:8 *644:14 2.2557 
3 *644:14 *644:16 0.5974 
4 *644:16 *1297:B 42.7089 
5 *644:16 *1298:B 40.7519 
6 *644:14 *1701:A 42.4823 
7 *644:8 *644:47 10.7326 
8 *644:47 *1705:A 41.4214 
9 *644:47 *644:64 1.4111 
10 *644:64 *1582:B 41.1845 
11 *644:64 *644:77 22.0806 
12 *644:77 *644:87 29.2185 
13 *644:87 *644:95 42.2454 
14 *644:95 *1596:B 41.4008 
15 *644:87 *1519:B 41.4008 
16 *644:77 *1581:A_N 21.1845 
*END

*D_NET *645 0.0077149
*CONN
*I *1556:A I *D sg13cmos5l_nand2_1
*I *1519:A I *D sg13cmos5l_and2_1
*I *1596:A I *D sg13cmos5l_nor4_1
*I *1595:A I *D sg13cmos5l_nor3_1
*I *1690:A I *D sg13cmos5l_nand2_1
*I *1703:A1 I *D sg13cmos5l_a21oi_1
*I *1695:A I *D sg13cmos5l_xor2_1
*I *1693:A I *D sg13cmos5l_xor2_1
*I *1878:X O *D sg13cmos5l_buf_1
*CAP
1 *1556:A 3.21975e-05
2 *1519:A 0.000165255
3 *1596:A 0
4 *1595:A 2.91043e-05
5 *1690:A 3.177e-05
6 *1703:A1 0
7 *1695:A 0
8 *1693:A 3.34444e-05
9 *1878:X 0.00015763
10 *645:87 0.000160581
11 *645:72 0.000553628
12 *645:66 0.000830048
13 *645:58 0.000549022
14 *645:37 8.63521e-05
15 *645:22 0.000613998
16 *645:16 0.000720661
17 *645:14 0.000289865
18 *645:10 0.00040524
19 *1690:A *717:136 0
20 *645:10 *684:36 0.000395595
21 *645:16 *717:136 0
22 *645:22 *717:136 0
23 *645:37 *717:119 0
24 *645:87 *646:8 0
25 *645:87 *684:30 0
26 *1519:B *1519:A 0.000176161
27 *1519:B *645:72 4.6793e-05
28 *1556:B *645:66 0
29 *1595:B *1595:A 0
30 *1595:B *645:87 0
31 *1596:B *645:72 0
32 *1596:B *645:87 4.77425e-05
33 *1703:A2 *645:16 1.54008e-05
34 *1703:A2 *645:22 4.78028e-05
35 *1703:B1 *645:16 0
36 *1704:A2 *645:22 3.77432e-05
37 *1708:B *1595:A 0
38 *1708:B *645:72 0
39 *1708:A *645:72 0
40 *1710:B1 *645:66 0
41 *1721:A2 *1519:A 1.54008e-05
42 *1852:A *645:22 0
43 *358:38 *645:66 0.000448611
44 *359:8 *645:58 7.51285e-05
45 *365:56 *645:22 0
46 *373:37 *1693:A 4.77425e-05
47 *373:37 *645:22 9.71345e-05
48 *373:37 *645:37 4.77425e-05
49 *383:8 *645:10 0.000129186
50 *397:51 *645:87 0.000128576
51 *398:10 *1595:A 1.54556e-05
52 *398:10 *645:72 0
53 *484:8 *645:16 0.000110829
54 *488:10 *645:37 0.000128406
55 *544:43 *645:22 0
56 *597:8 *645:72 0.000144943
57 *642:54 *645:66 0.000611284
58 *644:87 *645:58 0
59 *644:87 *645:66 0.000288421
*RES
1 *1878:X *645:10 42.369 
2 *645:10 *645:14 20.3502 
3 *645:14 *645:16 2.0497 
4 *645:16 *645:22 4.4805 
5 *645:22 *1693:A 20.3193 
6 *645:22 *645:37 40.9167 
7 *645:37 *1695:A 20 
8 *645:16 *1703:A1 20 
9 *645:14 *1690:A 20.3193 
10 *645:10 *645:58 21.8334 
11 *645:58 *645:66 44.532 
12 *645:66 *645:72 3.399 
13 *645:72 *1595:A 20.3193 
14 *645:72 *645:87 41.6583 
15 *645:87 *1596:A 20 
16 *645:66 *1519:A 21.6171 
17 *645:58 *1556:A 20.3193 
*END

*D_NET *646 0.0108122
*CONN
*I *1580:A I *D sg13cmos5l_nor2_1
*I *1878:A I *D sg13cmos5l_buf_1
*I *1582:A I *D sg13cmos5l_nor4_1
*I *1293:B I *D sg13cmos5l_nor2_1
*I *1294:B I *D sg13cmos5l_nand2_1
*I *1697:A I *D sg13cmos5l_xor2_1
*I *1691:B1 I *D sg13cmos5l_o21ai_1
*I *1879:X O *D sg13cmos5l_buf_1
*CAP
1 *1580:A 0.000275515
2 *1878:A 0
3 *1582:A 7.43809e-05
4 *1293:B 0
5 *1294:B 0.000280932
6 *1697:A 5.50818e-05
7 *1691:B1 0.000196067
8 *1879:X 0.0005972
9 *646:90 0.00050511
10 *646:61 0.000352466
11 *646:59 0.000996188
12 *646:46 0.00141272
13 *646:38 0.000830722
14 *646:30 0.000686715
15 *646:26 0.000467562
16 *646:8 0.000459468
17 *1294:B *1294:A 0
18 *646:8 *684:30 0
19 *646:26 *684:30 0.000234311
20 *646:26 *717:136 0.000394295
21 *646:59 *670:19 0
22 *646:59 *753:8 0.000287343
23 *1582:B *1582:A 1.54556e-05
24 *1595:B *646:8 0.000235556
25 *1689:B1 *1697:A 0
26 *1689:A1 *1697:A 0
27 *1711:A1 *1582:A 0
28 *1711:A2 *1582:A 0.00011231
29 *1714:B1 *1580:A 9.7025e-05
30 *1714:B1 *646:90 8.00842e-05
31 *37:12 *646:46 0.000112376
32 *37:12 *646:59 0
33 *48:12 *646:59 0
34 *64:8 *646:59 0
35 *66:12 *1582:A 0
36 *66:12 *646:46 0
37 *311:30 *646:90 0.000146301
38 *311:53 *1691:B1 0
39 *373:45 *646:30 4.82481e-05
40 *373:45 *646:90 0.000211669
41 *382:28 *1697:A 0
42 *382:28 *646:46 0
43 *382:34 *1697:A 0
44 *382:34 *646:46 0.000435664
45 *385:8 *646:38 1.55212e-05
46 *397:10 *1691:B1 1.54008e-05
47 *397:17 *1691:B1 3.23417e-05
48 *397:38 *1691:B1 1.1718e-05
49 *410:16 *646:8 0.000985956
50 *476:10 *646:59 0
51 *477:46 *646:38 2.25909e-05
52 *494:20 *646:59 0
53 *503:10 *646:38 0
54 *562:8 *646:26 0.000127878
55 *562:8 *646:38 0
56 *562:8 *646:46 0
57 *579:8 *646:26 0
58 *597:16 *646:38 0
59 *597:22 *646:30 0
60 *607:10 *646:59 0
61 *645:87 *646:8 0
*RES
1 *1879:X *646:8 44.5526 
2 *646:8 *1691:B1 41.6171 
3 *1879:X *646:26 44.0582 
4 *646:26 *646:30 21.1845 
5 *646:30 *646:38 22.9664 
6 *646:38 *646:46 24.8513 
7 *646:46 *1697:A 20.5356 
8 *646:46 *646:59 49.7438 
9 *646:59 *646:61 0.5356 
10 *646:61 *1294:B 21.8334 
11 *646:61 *1293:B 20 
12 *646:38 *1582:A 40.7519 
13 *646:30 *646:90 42.369 
14 *646:90 *1878:A 20 
15 *646:90 *1580:A 22.8737 
*END

*D_NET *647 0.0161307
*CONN
*I *1677:A I *D sg13cmos5l_nand2_1
*I *1579:B I *D sg13cmos5l_or3_1
*I *1552:A I *D sg13cmos5l_and2_1
*I *1521:A I *D sg13cmos5l_nand3_1
*I *1683:A I *D sg13cmos5l_nor2_1
*I *1685:B1 I *D sg13cmos5l_o21ai_1
*I *1292:A2 I *D sg13cmos5l_a21oi_1
*I *1288:B I *D sg13cmos5l_xnor2_1
*I *1880:X O *D sg13cmos5l_buf_1
*CAP
1 *1677:A 0.000306364
2 *1579:B 4.43497e-05
3 *1552:A 0.000336205
4 *1521:A 0
5 *1683:A 0
6 *1685:B1 0.00023161
7 *1292:A2 0
8 *1288:B 4.44237e-05
9 *1880:X 0
10 *647:80 0.000361366
11 *647:74 0.00123524
12 *647:54 0.000358147
13 *647:50 0.0015753
14 *647:44 0.000283036
15 *647:42 0.0013963
16 *647:29 0.000247019
17 *647:23 0.00177062
18 *647:14 0.000552376
19 *647:6 0.000687013
20 *1552:A *1520:A 1.54556e-05
21 *1552:A *759:12 0
22 *1579:B *1579:A 6.48261e-05
23 *1677:A *717:30 0
24 *1677:A *717:40 0
25 *1685:B1 *648:80 0
26 *647:42 *648:8 0
27 *647:42 *670:19 0
28 *647:42 *670:32 0
29 *647:42 *752:8 0
30 *647:42 *753:8 0
31 *647:50 *1579:A 8.01938e-05
32 *647:54 *648:80 0.000208917
33 *647:74 *695:20 0
34 *647:74 *711:14 0
35 *1289:B *1677:A 0
36 *1289:B *647:14 0
37 *1290:B1 *647:14 0
38 *1296:A *647:23 1.54008e-05
39 *1296:A *647:42 0.000162076
40 *1520:B *647:74 0.000183049
41 *1579:C *1579:B 0
42 *1675:A2 *1685:B1 0
43 *1685:A2 *1685:B1 0.0001441
44 *1687:A1 *1685:B1 0
45 *1687:A1 *647:54 0
46 *1700:B1 *1685:B1 0
47 *48:12 *647:14 0
48 *48:12 *647:42 0
49 *65:8 *647:42 0
50 *65:8 *647:50 0
51 *117:24 *647:14 4.77425e-05
52 *119:14 *647:14 0
53 *122:8 *647:42 0
54 *122:20 *647:42 0
55 *323:23 *1552:A 0
56 *324:12 *1552:A 4.77863e-05
57 *325:18 *647:74 0
58 *354:16 *647:74 0
59 *356:12 *647:74 0
60 *356:18 *647:74 0
61 *357:10 *647:74 0.000343154
62 *358:8 *647:74 0
63 *358:16 *647:74 0
64 *365:10 *647:74 0.000288688
65 *365:20 *647:74 0.000397114
66 *371:10 *1552:A 0
67 *373:24 *647:74 0
68 *408:22 *647:74 0
69 *411:35 *647:50 0.000500821
70 *411:35 *647:74 0.00193883
71 *462:12 *647:74 0
72 *483:10 *647:42 0
73 *563:83 *1552:A 0
74 *578:10 *647:50 0.000129089
75 *578:21 *647:50 0.000661652
76 *578:21 *647:74 0.000958991
77 *578:44 *647:74 0.00028868
78 *586:128 *647:50 0
79 *605:8 *1677:A 0
80 *605:8 *647:14 0
81 *605:12 *1288:B 1.54008e-05
82 *605:27 *1288:B 8.00842e-05
83 *605:27 *647:23 0.00012929
84 *605:27 *647:29 0
85 *631:14 *647:42 0
*RES
1 *1880:X *647:6 40 
2 *647:6 *647:14 23.1209 
3 *647:14 *1288:B 20.5356 
4 *647:14 *647:23 1.4008 
5 *647:23 *647:29 42.3278 
6 *647:29 *1292:A2 20 
7 *647:23 *647:42 34.3994 
8 *647:42 *647:44 20 
9 *647:44 *647:50 24.0994 
10 *647:50 *647:54 21.4008 
11 *647:54 *1685:B1 22.1836 
12 *647:54 *1683:A 20 
13 *647:50 *647:74 36.5301 
14 *647:74 *647:80 40.3193 
15 *647:80 *1521:A 20 
16 *647:80 *1552:A 23.296 
17 *647:44 *1579:B 20.5356 
18 *647:6 *1677:A 42.2145 
*END

*D_NET *648 0.0130576
*CONN
*I *1579:A I *D sg13cmos5l_or3_1
*I *1550:A I *D sg13cmos5l_xnor2_1
*I *1549:A I *D sg13cmos5l_nand2_1
*I *1236:A I *D sg13cmos5l_inv_1
*I *1685:A1 I *D sg13cmos5l_o21ai_1
*I *1665:A I *D sg13cmos5l_nand2_1
*I *1284:B I *D sg13cmos5l_xor2_1
*I *1283:B I *D sg13cmos5l_nand2_1
*I *1881:X O *D sg13cmos5l_buf_1
*CAP
1 *1579:A 0.000258411
2 *1550:A 0
3 *1549:A 6.98707e-05
4 *1236:A 5.28209e-05
5 *1685:A1 0.000113259
6 *1665:A 0
7 *1284:B 0
8 *1283:B 4.44152e-05
9 *1881:X 6.42581e-05
10 *648:110 0.000261999
11 *648:95 0.000552683
12 *648:80 0.000779286
13 *648:61 0.00095916
14 *648:53 0.00158694
15 *648:35 0.000242778
16 *648:20 0.000572337
17 *648:18 0.000490084
18 *648:14 0.000550837
19 *648:8 0.00139844
20 *648:18 *717:40 0
21 *648:20 *717:40 0
22 *648:20 *717:46 0
23 *648:80 *717:10 4.77425e-05
24 *648:95 *673:113 0
25 *648:110 *699:20 0
26 *1284:A *648:35 0.000287475
27 *1549:B *648:110 0.000182279
28 *1550:B *648:110 8.00842e-05
29 *1579:B *1579:A 6.48261e-05
30 *1579:C *1579:A 0
31 *1579:C *648:61 0.00018144
32 *1670:B *1685:A1 0
33 *1681:B2 *648:95 0
34 *1683:B *1685:A1 0.000111876
35 *1683:B *648:80 0.000112048
36 *1684:B1 *648:80 0
37 *1684:A2 *648:80 0
38 *1685:B1 *648:80 0
39 *1685:A2 *1685:A1 0.0001441
40 *1685:A2 *648:61 0.000450452
41 *1689:A2 *1579:A 0
42 *1700:B1 *648:80 0
43 *1957:A *1579:A 0
44 *35:22 *648:61 0
45 *45:8 *648:35 0
46 *46:8 *648:35 0
47 *47:10 *648:8 0
48 *83:14 *1549:A 0
49 *83:14 *648:95 0
50 *113:10 *1283:B 1.54008e-05
51 *113:10 *648:20 6.48152e-05
52 *113:10 *648:35 0
53 *311:53 *648:95 0
54 *325:20 *648:110 0.000128406
55 *342:18 *648:61 0
56 *365:26 *1236:A 0
57 *365:37 *648:95 0
58 *372:115 *648:80 0
59 *373:24 *648:80 0
60 *382:10 *1579:A 0
61 *410:22 *648:61 0
62 *411:35 *648:80 0.000660577
63 *479:8 *648:61 0
64 *480:8 *648:61 0
65 *481:8 *648:53 0.000394981
66 *482:8 *648:53 0.000820482
67 *482:8 *648:61 0.000501507
68 *544:43 *1236:A 0
69 *578:21 *648:110 0
70 *578:44 *648:110 0
71 *616:10 *648:35 0.000127878
72 *629:16 *648:8 0
73 *629:16 *648:53 0
74 *631:14 *648:53 0.000394566
75 *647:42 *648:8 0
76 *647:50 *1579:A 8.01938e-05
77 *647:54 *648:80 0.000208917
*RES
1 *1881:X *648:8 40.5974 
2 *648:8 *648:14 43.9964 
3 *648:14 *648:18 21.4008 
4 *648:18 *648:20 2.0497 
5 *648:20 *1283:B 20.3193 
6 *648:20 *648:35 43.1415 
7 *648:35 *1284:B 20 
8 *648:18 *1665:A 20 
9 *648:8 *648:53 30.4133 
10 *648:53 *648:61 44.5938 
11 *648:61 *1685:A1 21.1845 
12 *648:61 *648:80 46.0049 
13 *648:80 *1236:A 20.5356 
14 *648:80 *648:95 2.2351 
15 *648:95 *1549:A 20.6927 
16 *648:95 *648:110 42.5853 
17 *648:110 *1550:A 20 
18 *648:53 *1579:A 22.4823 
*END

*D_NET *649 0.0189481
*CONN
*I *1658:B1 I *D sg13cmos5l_a21o_1
*I *1653:A I *D sg13cmos5l_nand2_1
*I *1525:A I *D sg13cmos5l_nand3_1
*I *1657:B I *D sg13cmos5l_nand3_1
*I *1578:A_N I *D sg13cmos5l_nand2b_1
*I *1660:A I *D sg13cmos5l_xor2_1
*I *1277:B I *D sg13cmos5l_and2_1
*I *1278:B I *D sg13cmos5l_xnor2_1
*I *1882:X O *D sg13cmos5l_buf_1
*CAP
1 *1658:B1 0.000140817
2 *1653:A 5.73216e-05
3 *1525:A 0.000153787
4 *1657:B 0.000135431
5 *1578:A_N 0
6 *1660:A 3.09569e-05
7 *1277:B 2.92171e-05
8 *1278:B 0.000285213
9 *1882:X 3.49805e-05
10 *649:113 0.000434895
11 *649:87 0.00115325
12 *649:79 0.00157636
13 *649:64 0.000655006
14 *649:62 0.00120165
15 *649:51 0.00138438
16 *649:36 0.00122469
17 *649:14 0.000528536
18 *649:6 0.000966023
19 *1653:A *1653:B 0
20 *1658:B1 *1658:A1 0.000207986
21 *1660:A *719:12 0
22 *649:36 *750:8 0.000874517
23 *649:51 *719:12 0
24 *649:62 *653:14 0
25 *649:79 *1531:A 8.00842e-05
26 *649:87 *677:30 0
27 *649:87 *699:20 0
28 *649:87 *717:76 0
29 *649:113 *652:24 0.000130445
30 *649:113 *756:36 0.000130372
31 *1278:A *1277:B 3.23472e-05
32 *1278:A *1278:B 0.000144126
33 *1547:A *649:87 0.000396619
34 *1567:C *649:113 0
35 *1578:B *1660:A 0
36 *1578:B *649:51 0
37 *1578:B *649:62 1.54556e-05
38 *1666:B *649:87 0
39 *1670:A *649:79 0.000112426
40 *1672:B1 *649:79 0
41 *1683:B *649:79 0
42 *1818:CLK *649:51 0
43 *45:8 *649:14 0.000341722
44 *45:8 *649:36 0.000395669
45 *83:14 *1653:A 0
46 *109:8 *1278:B 0
47 *109:31 *649:36 0
48 *110:18 *649:14 0
49 *334:16 *1658:B1 0.000240328
50 *334:16 *649:79 0
51 *338:82 *649:62 0
52 *342:18 *649:87 0
53 *350:8 *649:87 0.000130725
54 *352:8 *649:87 0
55 *353:8 *649:87 0.000289571
56 *353:19 *649:87 0.000322419
57 *353:38 *649:87 0.000107239
58 *372:100 *649:113 0.000276608
59 *380:8 *1660:A 0
60 *381:8 *649:62 0
61 *411:43 *649:62 0
62 *411:60 *649:62 0
63 *420:12 *649:113 0.000277037
64 *427:8 *649:87 0.000239301
65 *428:36 *1657:B 1.54008e-05
66 *428:51 *1657:B 0.000128508
67 *428:51 *649:113 0.000236034
68 *450:14 *1653:A 4.7803e-05
69 *450:14 *649:79 1.54008e-05
70 *465:14 *649:51 1.54556e-05
71 *465:14 *649:62 0
72 *467:10 *649:79 8.00842e-05
73 *477:10 *649:87 0
74 *477:14 *1653:A 0
75 *477:14 *649:79 7.93987e-05
76 *477:33 *1653:A 0
77 *477:33 *649:79 0
78 *560:8 *649:36 0
79 *574:43 *649:87 0.00082154
80 *576:48 *649:87 0.00226843
81 *577:10 *649:62 0
82 *577:21 *649:62 0
83 *578:21 *649:87 0
84 *620:10 *649:36 0.000502562
85 *630:50 *649:79 0
86 *633:12 *649:36 0
*RES
1 *1882:X *649:6 20.3193 
2 *649:6 *649:14 42.1218 
3 *649:14 *1278:B 22.3999 
4 *649:14 *1277:B 20.3193 
5 *649:6 *649:36 48.755 
6 *649:36 *1660:A 20.3193 
7 *649:36 *649:51 3.7843 
8 *649:51 *1578:A_N 20 
9 *649:51 *649:62 27.4675 
10 *649:62 *649:64 20 
11 *649:64 *1657:B 21.1845 
12 *649:64 *649:79 5.0161 
13 *649:79 *649:87 35.6045 
14 *649:87 *1525:A 41.1845 
15 *649:79 *1653:A 20.5356 
16 *649:62 *649:113 43.7698 
17 *649:113 *1658:B1 41.6171 
*END

*D_NET *650 0.0204139
*CONN
*I *1643:A I *D sg13cmos5l_xor2_1
*I *1279:A2 I *D sg13cmos5l_a221oi_1
*I *1645:A I *D sg13cmos5l_xnor2_1
*I *1577:C I *D sg13cmos5l_nor4_1
*I *1274:B I *D sg13cmos5l_nor2_1
*I *1275:B I *D sg13cmos5l_xor2_1
*I *1543:A I *D sg13cmos5l_and2_1
*I *1527:A I *D sg13cmos5l_nand3_1
*I *1883:X O *D sg13cmos5l_buf_1
*CAP
1 *1643:A 0.000217065
2 *1279:A2 0.000159631
3 *1645:A 0.000122889
4 *1577:C 0.00034383
5 *1274:B 4.80724e-05
6 *1275:B 0.000265341
7 *1543:A 2.74757e-05
8 *1527:A 5.16693e-05
9 *1883:X 0.00041782
10 *650:70 0.000620906
11 *650:64 0.00149203
12 *650:56 0.0016371
13 *650:54 0.000589397
14 *650:52 0.000919892
15 *650:46 0.00108694
16 *650:36 0.00133292
17 *650:23 0.000918203
18 *650:12 0.000494677
19 *1275:B *1271:B 0.000317014
20 *1275:B *653:32 0
21 *1279:A2 *1279:A1 1.54008e-05
22 *1577:C *1267:B 7.94972e-05
23 *1577:C *653:16 3.15716e-05
24 *1577:C *653:24 0.000376573
25 *1577:C *654:34 0.000177109
26 *1643:A *706:89 0.000337982
27 *650:12 *674:14 0
28 *650:46 *653:60 0
29 *650:46 *653:68 0
30 *650:46 *673:61 0.000659513
31 *650:46 *695:66 0.000129186
32 *650:52 *653:60 0.000502169
33 *650:52 *706:89 4.77425e-05
34 *650:54 *653:60 0.000555201
35 *650:56 *653:32 7.53228e-05
36 *650:56 *653:60 0.000106798
37 *650:64 *653:32 0.00167773
38 *650:70 *1271:B 0.000181192
39 *650:70 *653:32 0
40 *650:70 *654:73 0.000540531
41 *650:70 *654:88 0
42 *650:70 *669:10 0.000344508
43 *650:70 *671:47 7.65602e-05
44 *650:70 *749:8 7.66483e-05
45 *1279:B1 *1279:A2 0
46 *1536:A *1645:A 0
47 *1545:A2 *1527:A 0
48 *1645:B *1645:A 1.54008e-05
49 *1646:B1 *1643:A 0
50 *1656:B *1527:A 4.79124e-05
51 *1656:B *1543:A 0
52 *1656:B *650:12 0
53 *1668:B *650:12 0
54 *1768:D *1577:C 0
55 *1883:A *650:12 8.00842e-05
56 *103:29 *1645:A 0
57 *311:53 *650:12 0
58 *329:25 *650:12 0
59 *344:14 *650:46 0
60 *346:29 *1543:A 0
61 *354:8 *650:12 1.54008e-05
62 *372:78 *650:46 0.000291059
63 *378:22 *650:36 0
64 *378:57 *650:70 0.000234224
65 *379:24 *1645:A 8.00842e-05
66 *411:20 *650:36 0.00135732
67 *432:14 *1275:B 0.000177203
68 *433:18 *650:52 0
69 *434:8 *650:46 0
70 *437:22 *650:36 0
71 *437:22 *650:46 0.000481449
72 *575:31 *650:36 0
73 *585:56 *650:36 0
74 *608:28 *650:46 0.000451095
75 *608:34 *650:46 0.000128527
*RES
1 *1883:X *650:12 24.3631 
2 *650:12 *1527:A 20.6695 
3 *650:12 *650:23 0.3502 
4 *650:23 *1543:A 20.3193 
5 *650:23 *650:36 49.6202 
6 *650:36 *650:46 47.1997 
7 *650:46 *650:52 23.0797 
8 *650:52 *650:54 2.575 
9 *650:54 *650:56 0.8446 
10 *650:56 *650:64 48.5181 
11 *650:64 *650:70 5.2221 
12 *650:70 *1275:B 43.1003 
13 *650:70 *1274:B 40.6695 
14 *650:56 *1577:C 43.7904 
15 *650:54 *1645:A 41.1845 
16 *650:52 *1279:A2 41.3004 
17 *650:46 *1643:A 22.266 
*END

*D_NET *651 0.0119602
*CONN
*I *2002:A I *D sg13cmos5l_buf_1
*I *1832:X O *D sg13cmos5l_buf_1
*CAP
1 *2002:A 0
2 *1832:X 0.00276615
3 *651:28 0.00133492
4 *651:22 0.00410106
5 *651:22 *1963:A 0.000111658
6 *651:22 *667:10 0
7 *651:22 *679:12 0
8 *651:22 *680:27 0.00026525
9 *651:22 *680:43 0
10 *651:28 *1784:RESET_B 0.000112426
11 *651:28 *680:85 0
12 *1777:CLK *651:22 0.000112558
13 *1779:CLK *651:22 0.000324129
14 *1780:CLK *651:22 0
15 *1784:CLK *651:28 0
16 *1949:A *651:22 0
17 *89:29 *651:22 0.000379575
18 *137:8 *651:22 0
19 *141:10 *651:22 0.000533634
20 *146:10 *651:28 0
21 *565:71 *651:22 0.000338585
22 *567:43 *651:28 0.00012816
23 *567:47 *651:28 0
24 *567:51 *651:22 0.000307051
25 *567:51 *651:28 0
26 *582:10 *651:22 0
27 *621:12 *651:22 0
28 *639:75 *651:22 0.000112486
29 *639:86 *651:22 0
30 *639:93 *651:22 0
31 *639:93 *651:28 0.000920276
32 *639:112 *651:28 0.000112289
*RES
1 *1832:X *651:22 46.9716 
2 *651:22 *651:28 33.6166 
3 *651:28 *2002:A 40 
*END

*D_NET *652 0.0164838
*CONN
*I *1642:A I *D sg13cmos5l_nand2_1
*I *1657:A I *D sg13cmos5l_nand3_1
*I *1567:A I *D sg13cmos5l_nand4_1
*I *1544:A I *D sg13cmos5l_xnor2_1
*I *1658:A1 I *D sg13cmos5l_a21o_1
*I *1884:X O *D sg13cmos5l_buf_1
*CAP
1 *1642:A 0
2 *1657:A 3.13955e-05
3 *1567:A 6.33537e-05
4 *1544:A 0.0005259
5 *1658:A1 0.000147286
6 *1884:X 0.000236582
7 *652:60 0.000246953
8 *652:35 0.00081014
9 *652:24 0.000615286
10 *652:20 0.0026613
11 *652:14 0.00258746
12 *652:6 0.000561493
13 *1544:A *674:14 0.000144583
14 *652:20 *1770:RESET_B 0
15 *652:20 *1947:A 0
16 *652:20 *1999:A 0.000240918
17 *652:20 *654:49 0.000112426
18 *652:20 *669:16 0.000627834
19 *652:20 *672:62 0.00020956
20 *652:35 *756:36 0
21 *652:60 *699:12 0.000277037
22 *652:60 *706:77 0.000113616
23 *652:60 *706:85 0.000178985
24 *1658:B1 *1658:A1 0.000207986
25 *1770:CLK *652:20 0
26 *1776:CLK *652:20 0
27 *5:8 *652:14 0.000449137
28 *62:16 *652:20 0.00220385
29 *102:8 *652:14 0
30 *109:31 *652:20 0
31 *111:12 *652:20 0
32 *329:12 *1544:A 4.77425e-05
33 *329:25 *1544:A 1.54008e-05
34 *338:82 *652:20 0
35 *346:14 *652:60 0.000183956
36 *347:26 *1544:A 4.74263e-05
37 *348:14 *1544:A 9.2233e-05
38 *348:22 *1544:A 0.000234491
39 *372:22 *1544:A 0.000449373
40 *372:22 *652:24 0
41 *372:22 *652:35 0
42 *372:28 *652:20 0
43 *372:28 *652:24 0
44 *381:8 *652:20 0
45 *393:40 *1544:A 0
46 *411:43 *652:20 0
47 *411:60 *652:20 0
48 *454:17 *1657:A 4.77425e-05
49 *459:8 *1544:A 0.000287752
50 *460:8 *652:20 0.00023726
51 *460:8 *652:24 0
52 *461:8 *652:20 0.0011947
53 *560:14 *652:20 0
54 *560:18 *652:20 0
55 *560:26 *652:20 0
56 *576:33 *1567:A 7.9046e-05
57 *576:33 *1658:A1 0
58 *603:14 *652:20 0
59 *610:8 *652:20 0
60 *617:16 *652:6 0
61 *630:40 *652:60 0.000183193
62 *649:113 *652:24 0.000130445
*RES
1 *1884:X *652:6 21.6171 
2 *652:6 *652:14 43.5741 
3 *652:14 *652:20 46.5946 
4 *652:20 *652:24 3.3269 
5 *652:24 *1658:A1 41.4008 
6 *652:24 *652:35 0.8446 
7 *652:35 *1544:A 46.2624 
8 *652:35 *652:60 42.678 
9 *652:60 *1567:A 40.5356 
10 *652:20 *1657:A 40.3193 
11 *652:6 *1642:A 20 
*END

*D_NET *653 0.0209354
*CONN
*I *1576:B I *D sg13cmos5l_nor3_1
*I *1539:A I *D sg13cmos5l_nand2_1
*I *1577:B I *D sg13cmos5l_nor4_1
*I *1270:B I *D sg13cmos5l_and2_1
*I *1235:A I *D sg13cmos5l_inv_1
*I *1541:A I *D sg13cmos5l_xnor2_1
*I *1633:B1 I *D sg13cmos5l_o21ai_1
*I *1271:B I *D sg13cmos5l_xor2_1
*I *1885:X O *D sg13cmos5l_buf_1
*CAP
1 *1576:B 0.000134091
2 *1539:A 0.000119759
3 *1577:B 0
4 *1270:B 0.000207557
5 *1235:A 0.000318296
6 *1541:A 0.000164207
7 *1633:B1 5.59442e-05
8 *1271:B 0.000420434
9 *1885:X 0.00087769
10 *653:112 0.000302952
11 *653:68 0.00072926
12 *653:60 0.00116069
13 *653:32 0.00122643
14 *653:24 0.00176797
15 *653:16 0.00039849
16 *653:14 0.000954491
17 *653:10 0.00169614
18 *1270:B *1259:A 0
19 *1271:B *1274:A 0.000274228
20 *1271:B *727:16 0.000144441
21 *1539:A *654:22 0
22 *1541:A *1259:A 0.000176274
23 *1633:B1 *654:73 0
24 *653:16 *1577:A 1.54008e-05
25 *653:24 *1577:A 4.77425e-05
26 *653:32 *654:49 0.00129943
27 *653:32 *654:73 0.000539478
28 *653:32 *749:8 0.000289713
29 *653:60 *695:66 0
30 *1269:B1 *1271:B 0
31 *1275:B *1271:B 0.000317014
32 *1275:B *653:32 0
33 *1576:C *1576:B 9.5485e-05
34 *1577:C *653:16 3.15716e-05
35 *1577:C *653:24 0.000376573
36 *1578:B *653:14 0.000511016
37 *1639:A *1235:A 8.00842e-05
38 *1639:A *1541:A 0.000213771
39 *1640:B1 *1270:B 0
40 *1645:B *1576:B 0
41 *1645:B *653:112 0
42 *2000:A *653:60 0.000112426
43 *83:14 *653:10 1.54008e-05
44 *100:10 *653:32 0.000130532
45 *103:29 *653:60 0
46 *334:16 *653:10 0.000110829
47 *339:8 *653:60 0.000288173
48 *342:12 *653:14 0
49 *344:14 *1235:A 0.000143932
50 *344:14 *653:68 0
51 *365:136 *1270:B 4.78524e-05
52 *365:136 *653:60 4.77425e-05
53 *365:136 *653:68 0.000446905
54 *372:78 *653:60 0.000236497
55 *378:28 *1576:B 5.69687e-05
56 *379:24 *653:24 8.00842e-05
57 *380:8 *653:14 0
58 *380:8 *653:16 0
59 *432:14 *1271:B 0
60 *432:14 *1633:B1 8.00954e-05
61 *437:22 *1235:A 0
62 *437:22 *653:68 0.000215874
63 *439:10 *653:60 0.00028577
64 *443:8 *653:60 0
65 *444:10 *653:60 0
66 *465:14 *653:10 0
67 *465:14 *653:14 0
68 *467:10 *653:10 0.000237505
69 *468:10 *653:10 0
70 *575:25 *1235:A 0.000107001
71 *575:25 *653:68 2.25909e-05
72 *577:21 *653:10 0
73 *585:31 *1270:B 0.00014409
74 *585:31 *653:60 0
75 *608:28 *653:68 0
76 *610:20 *1271:B 0
77 *610:35 *1270:B 8.00842e-05
78 *633:8 *1539:A 0
79 *633:8 *653:14 0
80 *649:62 *653:14 0
81 *650:46 *653:60 0
82 *650:46 *653:68 0
83 *650:52 *653:60 0.000502169
84 *650:54 *653:60 0.000555201
85 *650:56 *653:32 7.53228e-05
86 *650:56 *653:60 0.000106798
87 *650:64 *653:32 0.00167773
88 *650:70 *1271:B 0.000181192
89 *650:70 *653:32 0
*RES
1 *1885:X *653:10 47.7765 
2 *653:10 *653:14 27.9413 
3 *653:14 *653:16 0.9167 
4 *653:16 *653:24 23.1518 
5 *653:24 *653:32 12.463 
6 *653:32 *1271:B 45.0058 
7 *653:32 *1633:B1 40.5356 
8 *653:24 *653:60 28.9507 
9 *653:60 *653:68 23.2445 
10 *653:68 *1541:A 41.854 
11 *653:68 *1235:A 43.09 
12 *653:60 *1270:B 22.0703 
13 *653:16 *1577:B 20 
14 *653:14 *653:112 0.5974 
15 *653:112 *1539:A 21.4523 
16 *653:112 *1576:B 21.5141 
*END

*D_NET *654 0.0256993
*CONN
*I *1233:A I *D sg13cmos5l_inv_1
*I *1565:A1 I *D sg13cmos5l_a21oi_1
*I *1531:A I *D sg13cmos5l_nand2_1
*I *1576:A I *D sg13cmos5l_nor3_1
*I *1577:A I *D sg13cmos5l_nor4_1
*I *1266:B I *D sg13cmos5l_nand2_1
*I *1633:A1 I *D sg13cmos5l_o21ai_1
*I *1267:B I *D sg13cmos5l_xnor2_1
*I *1886:X O *D sg13cmos5l_buf_1
*CAP
1 *1233:A 0
2 *1565:A1 0
3 *1531:A 4.63762e-05
4 *1576:A 0
5 *1577:A 0.000149316
6 *1266:B 0
7 *1633:A1 0
8 *1267:B 0.000378577
9 *1886:X 2.66532e-05
10 *654:156 0.000345432
11 *654:146 0.000437505
12 *654:142 0.000537331
13 *654:134 0.000897484
14 *654:115 0.000715416
15 *654:88 0.00041018
16 *654:73 0.000623032
17 *654:61 0.000475162
18 *654:49 0.000575099
19 *654:34 0.000895518
20 *654:28 0.000634606
21 *654:22 0.000434378
22 *654:18 0.000612884
23 *654:10 0.00148895
24 *654:8 0.000839145
25 *1267:B *695:51 0.000143549
26 *1267:B *706:114 0
27 *1267:B *719:12 0
28 *654:8 *1259:A 4.75278e-05
29 *654:18 *695:74 0
30 *654:61 *669:10 0.00023464
31 *654:61 *669:30 0.00012816
32 *654:142 *674:14 4.77425e-05
33 *654:156 *673:82 0
34 *1273:B1 *654:28 0.000106064
35 *1273:B1 *654:34 0.000282382
36 *1496:B *654:156 0.00034292
37 *1539:A *654:22 0
38 *1565:A2 *654:156 8.00842e-05
39 *1566:A *654:146 0
40 *1576:C *654:22 6.46834e-05
41 *1576:C *654:28 8.00842e-05
42 *1577:C *1267:B 7.94972e-05
43 *1577:C *654:34 0.000177109
44 *1629:B1 *654:10 0
45 *1633:B1 *654:73 0
46 *1645:B *1577:A 0.000208615
47 *1645:B *654:28 0
48 *1658:A2 *654:10 0
49 *1673:A *654:115 2.25909e-05
50 *80:8 *654:156 0
51 *83:16 *654:115 0.000129679
52 *100:10 *654:88 0.000176274
53 *103:10 *654:28 0.00018211
54 *106:8 *654:88 0
55 *110:14 *654:22 0
56 *110:14 *654:28 0
57 *331:8 *654:134 0.000287061
58 *338:82 *654:134 0.000286974
59 *338:90 *654:115 0
60 *345:16 *654:134 0.000238031
61 *348:22 *654:146 0.00014404
62 *348:22 *654:156 0.000176293
63 *365:88 *654:8 4.75278e-05
64 *370:19 *654:142 0
65 *372:10 *654:142 0.00151562
66 *378:28 *654:22 0.000112057
67 *378:57 *654:88 0
68 *379:24 *654:49 0.00129902
69 *409:12 *654:156 0
70 *410:28 *654:18 0
71 *411:20 *654:134 0.000472285
72 *416:34 *654:156 0.000447868
73 *428:12 *654:10 0
74 *450:14 *1531:A 4.77425e-05
75 *450:14 *654:115 0.000129592
76 *455:14 *654:10 0
77 *455:14 *654:18 0
78 *458:10 *654:18 0.000288692
79 *544:21 *654:10 0
80 *544:21 *654:134 0
81 *544:31 *654:115 0
82 *574:14 *654:134 0
83 *576:8 *654:18 0.000343619
84 *576:33 *654:10 0.000719808
85 *576:33 *654:18 0.000533163
86 *585:39 *654:10 0
87 *603:22 *654:61 0.000183039
88 *608:16 *654:115 0.000765155
89 *610:20 *654:88 0
90 *612:53 *654:10 0.00023709
91 *612:53 *654:134 0.000482968
92 *630:36 *654:142 0.000875324
93 *630:87 *654:142 0.000374478
94 *649:79 *1531:A 8.00842e-05
95 *650:70 *654:73 0.000540531
96 *650:70 *654:88 0
97 *652:20 *654:49 0.000112426
98 *653:16 *1577:A 1.54008e-05
99 *653:24 *1577:A 4.77425e-05
100 *653:32 *654:49 0.00129943
101 *653:32 *654:73 0.000539478
*RES
1 *1886:X *654:8 40.3193 
2 *654:8 *654:10 4.5526 
3 *654:10 *654:18 46.1079 
4 *654:18 *654:22 21.4008 
5 *654:22 *654:28 22.7398 
6 *654:28 *654:34 22.2763 
7 *654:34 *1267:B 23.3475 
8 *654:34 *654:49 46.7877 
9 *654:49 *654:61 43.6771 
10 *654:61 *654:73 43.5329 
11 *654:73 *1633:A1 20 
12 *654:73 *654:88 43.2754 
13 *654:88 *1266:B 20 
14 *654:28 *1577:A 41.4008 
15 *654:22 *1576:A 20 
16 *654:10 *654:115 46.9731 
17 *654:115 *1531:A 40.5356 
18 *654:8 *654:134 46.798 
19 *654:134 *654:142 47.7765 
20 *654:142 *654:146 20.9682 
21 *654:146 *654:156 44.4496 
22 *654:156 *1565:A1 20 
23 *654:146 *1233:A 20 
*END

*D_NET *655 0.0316912
*CONN
*I *1512:A I *D sg13cmos5l_nand2_1
*I *1239:A I *D sg13cmos5l_inv_1
*I *1601:A1 I *D sg13cmos5l_a21oi_1
*I *1311:B I *D sg13cmos5l_xor2_1
*I *1572:B I *D sg13cmos5l_nor3_1
*I *1573:C I *D sg13cmos5l_nor4_1
*I *1604:A1 I *D sg13cmos5l_o21ai_1
*I *1260:B I *D sg13cmos5l_nand2_1
*I *1887:X O *D sg13cmos5l_buf_1
*CAP
1 *1512:A 0.00023839
2 *1239:A 0
3 *1601:A1 0.000191367
4 *1311:B 7.42486e-05
5 *1572:B 0.000209224
6 *1573:C 0
7 *1604:A1 0.000288269
8 *1260:B 0
9 *1887:X 0.000225419
10 *655:134 0.000272682
11 *655:126 0.00119846
12 *655:69 0.00111931
13 *655:58 0.000824546
14 *655:48 0.00183168
15 *655:42 0.0011898
16 *655:34 0.000921601
17 *655:32 0.000483987
18 *655:26 0.00155842
19 *655:22 0.00201635
20 *655:18 0.00212507
21 *655:12 0.000721181
22 *1512:A *754:50 0.000426332
23 *1601:A1 *1310:B 0
24 *655:12 *691:12 0
25 *655:12 *754:50 0.000288512
26 *655:18 *691:12 0
27 *655:18 *692:10 0
28 *655:26 *675:14 0
29 *655:42 *1310:B 0
30 *655:42 *677:14 0
31 *655:42 *681:10 0
32 *655:42 *714:18 0.000610526
33 *655:42 *716:8 0.000183242
34 *655:58 *681:10 0.00386554
35 *655:69 *672:28 0
36 *655:126 *1859:A 0
37 *655:126 *660:124 0
38 *655:126 *675:14 0.00119835
39 *655:134 *660:48 0.000255763
40 *655:134 *660:62 0
41 *655:134 *685:8 0
42 *1258:A *1604:A1 0.000256648
43 *1310:A *655:42 0.000596389
44 *1516:B1 *655:18 4.78356e-05
45 *1573:D *1604:A1 4.77425e-05
46 *1604:B1 *1604:A1 0.00017635
47 *1738:A *655:126 0
48 *1830:CLK *1512:A 0.000240957
49 *1941:A *1601:A1 0
50 *1967:A *655:12 0
51 *6:9 *655:48 0
52 *6:9 *655:58 0
53 *81:8 *1604:A1 0
54 *81:42 *1572:B 7.47964e-05
55 *99:18 *655:58 0.00352044
56 *193:22 *655:126 0
57 *202:16 *655:134 0.000441956
58 *202:52 *655:26 0.000289473
59 *202:52 *655:126 2.25909e-05
60 *258:37 *655:126 7.51285e-05
61 *258:39 *655:126 0.000369819
62 *303:18 *655:32 0
63 *306:14 *1601:A1 0
64 *312:64 *655:69 0
65 *313:29 *655:22 0
66 *313:29 *655:32 0
67 *315:14 *1512:A 0.000506572
68 *315:14 *655:12 0.000341544
69 *376:12 *1604:A1 0
70 *413:16 *655:32 0
71 *561:49 *655:42 0
72 *561:62 *655:42 0
73 *571:16 *1572:B 0.000128952
74 *571:31 *1604:A1 0
75 *572:8 *655:42 0
76 *572:12 *655:42 0
77 *572:12 *655:48 0
78 *572:27 *1572:B 0
79 *572:27 *655:69 0
80 *583:10 *655:18 0.000337786
81 *586:36 *1311:B 0.000129537
82 *586:36 *655:48 0.000942616
83 *586:36 *655:58 2.21468e-05
84 *611:10 *1311:B 0.000144447
85 *611:10 *655:42 7.51285e-05
86 *611:10 *655:48 4.68099e-05
87 *611:18 *655:69 0
88 *625:32 *655:12 0.000143932
89 *635:65 *1604:A1 7.53765e-05
90 *635:78 *1572:B 0.000183601
91 *635:78 *1604:A1 5.42181e-05
92 *635:88 *1572:B 8.00842e-05
*RES
1 *1887:X *655:12 42.9046 
2 *655:12 *655:18 42.329 
3 *655:18 *655:22 38.0559 
4 *655:22 *655:26 21.5862 
5 *655:26 *655:32 45.2062 
6 *655:32 *655:34 20 
7 *655:34 *655:42 48.6726 
8 *655:42 *655:48 25.3663 
9 *655:48 *655:58 39.1065 
10 *655:58 *1260:B 20 
11 *655:48 *655:69 46.592 
12 *655:69 *1604:A1 43.1003 
13 *655:69 *1573:C 40 
14 *655:69 *1572:B 42.5441 
15 *655:42 *1311:B 20.9682 
16 *655:34 *1601:A1 21.7253 
17 *655:26 *655:126 30.0013 
18 *655:126 *655:134 43.1982 
19 *655:134 *1239:A 20 
20 *655:12 *1512:A 43.6977 
*END

*D_NET *656 0.0188852
*CONN
*I *1352:B I *D sg13cmos5l_nand2_1
*I *1356:C I *D sg13cmos5l_nand3_1
*I *1351:B I *D sg13cmos5l_and2_1
*I *1361:C I *D sg13cmos5l_nor3_1
*I *1485:C1 I *D sg13cmos5l_a221oi_1
*I *1503:A I *D sg13cmos5l_xnor2_1
*I *1355:C I *D sg13cmos5l_and3_1
*I *1382:C I *D sg13cmos5l_nand3_1
*I *1888:X O *D sg13cmos5l_buf_1
*CAP
1 *1352:B 0.000398898
2 *1356:C 0
3 *1351:B 2.57931e-05
4 *1361:C 0.000220984
5 *1485:C1 3.31858e-05
6 *1503:A 0
7 *1355:C 0
8 *1382:C 0
9 *1888:X 0.000232829
10 *656:108 9.42978e-05
11 *656:70 0.000115171
12 *656:64 0.0010984
13 *656:54 0.00141507
14 *656:52 0.000642664
15 *656:48 0.000271629
16 *656:37 0.000563747
17 *656:26 0.000532334
18 *656:18 0.00141278
19 *656:12 0.00175881
20 *1351:B *658:35 3.23417e-05
21 *1352:B *658:95 0
22 *1361:C *1361:B 1.54008e-05
23 *1361:C *658:35 0.000240392
24 *1361:C *663:28 0
25 *1361:C *664:10 0.000337353
26 *1361:C *664:12 4.77425e-05
27 *656:12 *1802:CLK 0.000279978
28 *656:12 *775:19 2.9278e-05
29 *656:18 *681:22 0
30 *656:26 *1356:A 0.000288331
31 *656:26 *1382:B 1.54556e-05
32 *656:26 *1382:A 0
33 *656:37 *1355:B 4.77425e-05
34 *656:37 *1382:B 8.02379e-05
35 *656:37 *658:41 0
36 *656:37 *773:18 0
37 *656:48 *1355:A 0
38 *656:48 *658:35 4.77425e-05
39 *656:48 *658:37 7.9046e-05
40 *656:48 *658:41 0
41 *656:52 *664:63 0.000106064
42 *656:54 *664:63 7.51285e-05
43 *656:64 *675:18 0.000377255
44 *656:108 *1356:A 0
45 *656:108 *1382:A 0
46 *656:108 *681:22 0
47 *1484:B2 *656:70 0
48 *1803:CLK *656:64 0
49 *32:10 *656:12 0.000446304
50 *32:10 *656:18 0.00167251
51 *160:10 *656:37 8.01609e-05
52 *160:10 *656:48 0.00014404
53 *161:10 *1352:B 0
54 *162:35 *656:26 0.000144077
55 *162:35 *656:37 0
56 *163:66 *656:64 0.00100127
57 *174:18 *656:54 0
58 *191:12 *656:26 0
59 *290:28 *656:52 0.00012816
60 *290:28 *656:54 0.00098162
61 *292:16 *656:54 7.52158e-05
62 *292:16 *656:64 0.00071455
63 *295:10 *656:12 0
64 *296:8 *656:12 0.000106064
65 *296:8 *656:18 0.00167152
66 *306:20 *656:70 1.54008e-05
67 *544:128 *656:54 0
68 *545:13 *656:64 0
69 *551:12 *656:54 0
70 *554:10 *656:70 0
71 *556:8 *656:64 0
72 *564:12 *656:64 0.000553978
73 *565:18 *656:26 0
74 *626:20 *656:12 0.000234214
75 *636:33 *656:64 0
*RES
1 *1888:X *656:12 43.7389 
2 *656:12 *656:18 36.7375 
3 *656:18 *656:26 42.3072 
4 *656:26 *1382:C 20 
5 *656:26 *656:37 3.4608 
6 *656:37 *1355:C 20 
7 *656:37 *656:48 2.0703 
8 *656:48 *656:52 20.5974 
9 *656:52 *656:54 5.2942 
10 *656:54 *656:64 33.0501 
11 *656:64 *656:70 40.9682 
12 *656:70 *1503:A 20 
13 *656:54 *1485:C1 40.3193 
14 *656:52 *1361:C 42.4823 
15 *656:48 *1351:B 20.3193 
16 *656:18 *656:108 41.0712 
17 *656:108 *1356:C 20 
18 *656:12 *1352:B 44.1097 
*END

*D_NET *657 0.00606541
*CONN
*I *1429:B2 I *D sg13cmos5l_a22oi_1
*I *1362:C I *D sg13cmos5l_or3_1
*I *1393:B I *D sg13cmos5l_nand3b_1
*I *1447:D I *D sg13cmos5l_nor4_1
*I *1889:X O *D sg13cmos5l_buf_1
*CAP
1 *1429:B2 0
2 *1362:C 0
3 *1393:B 0
4 *1447:D 0.000225919
5 *1889:X 0.000819921
6 *657:41 0.000340889
7 *657:31 0.000516292
8 *657:18 0.000463188
9 *657:16 0.000125521
10 *657:12 0.000883575
11 *1447:D *1447:A 0
12 *657:12 *1361:B 0.000143325
13 *657:12 *661:24 4.77425e-05
14 *657:12 *663:14 0
15 *657:12 *663:16 0.000258172
16 *657:12 *663:28 0.000241116
17 *657:12 *664:75 0
18 *657:12 *664:111 0
19 *657:41 *1393:C 8.00842e-05
20 *657:41 *661:40 0.00023525
21 *1379:A2 *657:12 0.000556221
22 *1485:A2 *1447:D 0
23 *1485:A2 *657:41 0
24 *1861:A *1447:D 0
25 *162:54 *657:12 1.54008e-05
26 *163:56 *657:16 0
27 *174:18 *657:18 0
28 *174:18 *657:31 0.00020805
29 *174:18 *657:41 0.00011254
30 *174:31 *657:16 8.00842e-05
31 *188:10 *657:12 0
32 *209:24 *657:41 8.00842e-05
33 *238:12 *657:12 0
34 *238:12 *657:16 6.4711e-05
35 *238:12 *657:18 4.77425e-05
36 *256:10 *1447:D 1.54556e-05
37 *551:12 *657:41 0
38 *638:61 *657:12 0.000504127
39 *638:90 *657:12 0
*RES
1 *1889:X *657:12 49.0228 
2 *657:12 *657:16 20.7519 
3 *657:16 *657:18 0.7519 
4 *657:18 *1447:D 22.1218 
5 *657:18 *657:31 1.751 
6 *657:31 *657:41 43.5226 
7 *657:41 *1393:B 20 
8 *657:31 *1362:C 20 
9 *657:16 *1429:B2 20 
*END

*D_NET *658 0.0232054
*CONN
*I *1351:A I *D sg13cmos5l_and2_1
*I *1355:A I *D sg13cmos5l_and3_1
*I *1356:A I *D sg13cmos5l_nand3_1
*I *1481:C1 I *D sg13cmos5l_a221oi_1
*I *1352:A I *D sg13cmos5l_nand2_1
*I *1483:B1 I *D sg13cmos5l_o21ai_1
*I *1501:A I *D sg13cmos5l_and3_1
*I *1447:A I *D sg13cmos5l_nor4_1
*I *1890:X O *D sg13cmos5l_buf_1
*CAP
1 *1351:A 0
2 *1355:A 3.03095e-05
3 *1356:A 0.000310023
4 *1481:C1 7.18506e-05
5 *1352:A 0
6 *1483:B1 0.000444279
7 *1501:A 9.54256e-05
8 *1447:A 0.000492668
9 *1890:X 0.000137718
10 *658:95 0.00141372
11 *658:78 0.001858
12 *658:76 0.00129715
13 *658:49 0.00204744
14 *658:43 0.000763242
15 *658:41 0.000714057
16 *658:37 0.000521259
17 *658:35 0.000334676
18 *658:14 0.00120501
19 *658:8 0.000638813
20 *1356:A *1356:B 1.54008e-05
21 *1356:A *659:16 0
22 *1356:A *659:20 0.000554298
23 *1447:A *1447:B 1.54008e-05
24 *1447:A *663:28 7.65627e-05
25 *1481:C1 *770:42 0.0001122
26 *1483:B1 *1250:A 0
27 *1501:A *1810:RESET_B 0.00012816
28 *1501:A *675:40 0.000128353
29 *658:35 *663:28 0.000182624
30 *658:41 *1355:B 4.77425e-05
31 *658:41 *664:16 0
32 *658:41 *770:42 0.0001122
33 *658:43 *659:20 0.00012816
34 *658:49 *1810:RESET_B 0.000159344
35 *658:49 *659:20 0.000160024
36 *658:49 *659:26 0.000235345
37 *658:49 *765:11 0
38 *658:49 *765:13 0
39 *658:76 *1795:CLK 0.000143932
40 *658:76 *1803:RESET_B 0.000144697
41 *658:76 *674:60 0
42 *658:95 *1250:A 0
43 *658:95 *678:8 0.000500214
44 *658:95 *678:12 0.00113945
45 *658:95 *680:121 0.00012816
46 *658:95 *771:19 0
47 *658:95 *771:38 0
48 *658:95 *773:25 0
49 *658:95 *773:42 0
50 *658:95 *774:25 0
51 *1351:B *658:35 3.23417e-05
52 *1352:B *658:95 0
53 *1361:C *658:35 0.000240392
54 *1447:D *1447:A 0
55 *1483:A1 *1483:B1 4.76053e-05
56 *1484:C1 *1483:B1 0.000144896
57 *1490:B *658:95 0
58 *1796:D *658:76 0
59 *1797:CLK *658:76 0.000490047
60 *1861:A *1447:A 0
61 *28:16 *1483:B1 0
62 *55:10 *1501:A 0.000181695
63 *162:16 *658:14 0
64 *162:54 *658:14 0
65 *163:64 *1447:A 0
66 *163:74 *1483:B1 4.77425e-05
67 *170:27 *658:14 0
68 *172:54 *1356:A 0.000112332
69 *180:12 *1447:A 0
70 *180:46 *1501:A 0
71 *180:58 *658:41 4.77425e-05
72 *180:58 *658:49 7.55443e-05
73 *180:73 *658:76 0
74 *183:8 *658:8 0.000177043
75 *191:12 *1356:A 0
76 *193:33 *1447:A 0.00093456
77 *193:33 *658:35 0.000159096
78 *203:43 *658:8 0.000241727
79 *209:24 *658:41 0
80 *209:32 *1483:B1 0.000769354
81 *209:32 *658:95 0.00140766
82 *209:43 *658:95 0.00079797
83 *256:10 *1447:A 0
84 *293:14 *658:76 0
85 *298:10 *658:95 0.000394651
86 *546:21 *658:76 0
87 *546:39 *658:76 0
88 *565:18 *1356:A 0
89 *565:18 *658:43 0
90 *565:18 *658:49 0
91 *626:45 *658:14 0
92 *656:26 *1356:A 0.000288331
93 *656:37 *658:41 0
94 *656:48 *1355:A 0
95 *656:48 *658:35 4.77425e-05
96 *656:48 *658:37 7.9046e-05
97 *656:48 *658:41 0
98 *656:108 *1356:A 0
*RES
1 *1890:X *658:8 41.6171 
2 *658:8 *658:14 45.5105 
3 *658:14 *1447:A 45.974 
4 *658:14 *658:35 22.678 
5 *658:35 *658:37 0.9682 
6 *658:37 *658:41 23.3475 
7 *658:41 *658:43 0.5974 
8 *658:43 *658:49 6.9525 
9 *658:49 *1501:A 41.442 
10 *658:49 *658:76 32.0922 
11 *658:76 *658:78 20 
12 *658:78 *1483:B1 45.0264 
13 *658:78 *658:95 37.8808 
14 *658:95 *1352:A 20 
15 *658:43 *1481:C1 40.7519 
16 *658:41 *1356:A 44.3157 
17 *658:37 *1355:A 20.3502 
18 *658:35 *1351:A 20 
*END

*D_NET *659 0.0111864
*CONN
*I *1382:A I *D sg13cmos5l_nand3_1
*I *1486:S I *D sg13cmos5l_mux2_1
*I *1361:A I *D sg13cmos5l_nor3_1
*I *1362:A I *D sg13cmos5l_or3_1
*I *1891:X O *D sg13cmos5l_buf_1
*CAP
1 *1382:A 4.85932e-05
2 *1486:S 0.000129449
3 *1361:A 0
4 *1362:A 0
5 *1891:X 0.000769604
6 *659:41 0.000372309
7 *659:26 0.000915268
8 *659:20 0.000955233
9 *659:16 0.00126386
10 *659:14 0.00170204
11 *1382:A *1382:B 0
12 *1486:S *770:42 8.02927e-05
13 *659:14 *1388:A1 0
14 *659:14 *668:64 0
15 *659:16 *668:78 0
16 *659:16 *761:8 0.00060865
17 *659:20 *761:8 0
18 *659:26 *1835:A 0
19 *659:26 *661:34 1.54008e-05
20 *659:26 *661:40 0.000175721
21 *659:26 *765:31 0
22 *659:41 *661:34 0.000289687
23 *659:41 *663:28 4.77425e-05
24 *1317:A *659:14 9.65759e-05
25 *1356:A *659:16 0
26 *1356:A *659:20 0.000554298
27 *1388:B1 *659:14 0
28 *1421:C *659:16 0
29 *1485:A2 *659:26 0
30 *89:10 *659:14 0
31 *136:46 *659:16 0
32 *162:16 *659:20 0
33 *165:16 *1382:A 0
34 *180:12 *659:41 0.000342383
35 *180:58 *659:20 0.000340704
36 *180:58 *659:26 0.000234224
37 *182:18 *659:14 0.000111016
38 *182:34 *659:14 0
39 *191:12 *659:16 0
40 *191:14 *659:16 0
41 *192:20 *659:14 0
42 *193:58 *659:16 0
43 *195:10 *659:14 0
44 *196:12 *659:14 0
45 *196:12 *659:16 0
46 *202:10 *659:26 0
47 *209:24 *1486:S 0.000208878
48 *209:24 *659:26 0.000143938
49 *209:24 *659:41 0.000305088
50 *227:10 *659:16 0
51 *229:8 *659:16 0.000343053
52 *231:65 *659:14 0
53 *238:12 *659:41 0.000608905
54 *262:10 *659:14 0
55 *598:22 *659:14 0
56 *656:26 *1382:A 0
57 *656:108 *1382:A 0
58 *658:43 *659:20 0.00012816
59 *658:49 *659:20 0.000160024
60 *658:49 *659:26 0.000235345
*RES
1 *1891:X *659:14 47.3336 
2 *659:14 *659:16 9.991 
3 *659:16 *659:20 4.3466 
4 *659:20 *659:26 25.5208 
5 *659:26 *1362:A 20 
6 *659:26 *659:41 45.1912 
7 *659:41 *1361:A 20 
8 *659:20 *1486:S 41.4008 
9 *659:16 *1382:A 40.4687 
*END

*D_NET *660 0.0293655
*CONN
*I *1891:A I *D sg13cmos5l_buf_1
*I *1500:A I *D sg13cmos5l_nor3_1
*I *1529:A1 I *D sg13cmos5l_o21ai_1
*I *1532:A1 I *D sg13cmos5l_o21ai_1
*I *1535:A I *D sg13cmos5l_or4_1
*I *1395:A I *D sg13cmos5l_or2_1
*I *1394:A I *D sg13cmos5l_nor2_1
*I *1499:A I *D sg13cmos5l_xnor2_1
*I *1892:X O *D sg13cmos5l_buf_1
*CAP
1 *1891:A 0.000559724
2 *1500:A 0.000102353
3 *1529:A1 0
4 *1532:A1 0
5 *1535:A 2.80379e-05
6 *1395:A 2.29709e-05
7 *1394:A 0
8 *1499:A 0
9 *1892:X 0.000752859
10 *660:153 0.00144299
11 *660:124 6.71641e-05
12 *660:118 0.000293568
13 *660:87 0
14 *660:83 0.000724838
15 *660:77 0.000843374
16 *660:75 0.000196297
17 *660:73 0.000475502
18 *660:62 0.000756653
19 *660:52 0.000813016
20 *660:48 0.00261645
21 *660:38 0.00272002
22 *660:26 0.00137289
23 *660:20 0.0010085
24 *1891:A *667:20 0
25 *1891:A *667:30 0
26 *660:20 *661:26 0.000450157
27 *660:20 *661:32 2.20966e-05
28 *660:20 *661:104 0.00023709
29 *660:20 *664:111 0.000183564
30 *660:62 *675:14 0
31 *660:73 *675:14 0
32 *660:75 *675:14 0
33 *660:77 *675:14 0
34 *660:118 *677:14 0
35 *1231:A *660:124 0.000234224
36 *1246:A *660:48 0
37 *1373:B *660:153 0.000183809
38 *1402:A0 *660:20 0
39 *1434:A2 *660:20 0
40 *1442:B *660:20 0.000127886
41 *1493:A *660:62 1.54008e-05
42 *1502:B1 *1395:A 4.78192e-05
43 *1529:A2 *660:118 4.77425e-05
44 *1535:B *1535:A 1.54008e-05
45 *1738:A *660:124 5.30319e-05
46 *1890:A *660:20 1.03955e-05
47 *1892:A *660:20 8.00842e-05
48 *86:8 *660:62 0
49 *86:8 *660:73 0
50 *160:87 *660:153 0
51 *165:16 *660:26 7.94055e-05
52 *170:10 *660:38 0
53 *170:80 *660:153 0.000236682
54 *182:10 *1891:A 0.0011404
55 *182:18 *1891:A 8.02102e-05
56 *188:10 *660:153 0
57 *188:37 *660:153 0
58 *193:33 *660:48 0.00311359
59 *202:33 *1395:A 1.54556e-05
60 *202:33 *660:75 0.000107001
61 *202:33 *660:77 0.000237919
62 *202:44 *660:118 0.000265897
63 *202:52 *660:124 0.00023464
64 *203:43 *660:20 4.78359e-05
65 *209:24 *660:20 0
66 *211:8 *660:20 0.000165517
67 *231:46 *1891:A 0
68 *231:65 *1891:A 8.02102e-05
69 *238:12 *660:153 0.000504266
70 *241:10 *660:153 0
71 *247:18 *1891:A 0
72 *258:52 *660:62 0.000638373
73 *258:62 *660:62 0.000234727
74 *273:12 *1891:A 0.000234224
75 *274:16 *660:153 0.000182872
76 *290:14 *1891:A 0
77 *292:16 *660:48 0
78 *303:26 *660:73 7.52158e-05
79 *304:8 *660:62 0.000926634
80 *312:37 *660:83 0
81 *312:51 *660:83 0.000236633
82 *335:10 *660:83 0.00125827
83 *337:28 *660:83 0
84 *338:10 *660:77 0
85 *364:53 *660:83 0.000446682
86 *413:10 *660:77 7.61537e-05
87 *413:10 *660:83 0.00039668
88 *544:128 *660:48 0
89 *557:8 *660:48 0
90 *564:12 *660:48 0
91 *571:39 *660:83 0.000538511
92 *572:37 *660:83 0
93 *612:25 *660:62 7.91244e-05
94 *626:45 *660:38 0.000219938
95 *628:10 *660:20 0.00017706
96 *638:27 *1891:A 0.000127878
97 *638:27 *660:153 0
98 *638:51 *660:26 0.00027343
99 *638:61 *660:26 1.54008e-05
100 *638:61 *660:38 2.25909e-05
101 *638:75 *660:26 0.000111837
102 *641:34 *660:153 2.25909e-05
103 *655:126 *660:124 0
104 *655:134 *660:48 0.000255763
105 *655:134 *660:62 0
*RES
1 *1892:X *660:20 48.5078 
2 *660:20 *660:26 42.4823 
3 *660:26 *660:38 42.6368 
4 *660:38 *660:48 42.9999 
5 *660:48 *660:52 21.0918 
6 *660:52 *660:62 47.7559 
7 *660:62 *1499:A 40 
8 *660:62 *660:73 1.9055 
9 *660:73 *660:75 0.8446 
10 *660:75 *660:77 1.339 
11 *660:77 *660:83 30.0631 
12 *660:83 *660:87 40 
13 *660:87 *1394:A 20 
14 *660:77 *1395:A 40.3193 
15 *660:75 *1535:A 40.3193 
16 *660:73 *660:118 22.3175 
17 *660:118 *660:124 41.339 
18 *660:124 *1532:A1 20 
19 *660:118 *1529:A1 20 
20 *660:52 *1500:A 40.7519 
21 *660:26 *660:153 49.6717 
22 *660:153 *1891:A 47.313 
*END

*D_NET *661 0.0127427
*CONN
*I *1373:A I *D sg13cmos5l_nor2_1
*I *1372:B I *D sg13cmos5l_nand2b_1
*I *1353:A I *D sg13cmos5l_nor2b_1
*I *1362:B I *D sg13cmos5l_or3_1
*I *1363:A I *D sg13cmos5l_and2_1
*I *1382:B I *D sg13cmos5l_nand3_1
*I *1393:C I *D sg13cmos5l_nand3b_1
*I *1361:B I *D sg13cmos5l_nor3_1
*I *1893:X O *D sg13cmos5l_buf_1
*CAP
1 *1373:A 0
2 *1372:B 0.000119047
3 *1353:A 0
4 *1362:B 0
5 *1363:A 0.000103469
6 *1382:B 0.000396895
7 *1393:C 7.52345e-05
8 *1361:B 0.000202532
9 *1893:X 0.000235977
10 *661:110 0.000207732
11 *661:104 0.000862725
12 *661:53 0.000694746
13 *661:40 0.000490251
14 *661:34 0.000625758
15 *661:32 0.000558568
16 *661:26 0.000355346
17 *661:24 0.000771291
18 *1361:B *664:10 0
19 *1361:B *664:75 0
20 *1382:B *1356:B 0
21 *1393:C *1393:A_N 1.54008e-05
22 *1393:C *664:16 0
23 *661:104 *735:35 0
24 *1361:C *1361:B 1.54008e-05
25 *1365:A *1382:B 0.000112426
26 *1374:B1 *1372:B 0
27 *1382:A *1382:B 0
28 *1391:B2 *661:104 0.00023464
29 *1468:B1 *661:110 4.77425e-05
30 *1468:A2 *661:110 0
31 *87:16 *661:104 0.000768503
32 *160:10 *1382:B 0
33 *165:16 *1382:B 0
34 *171:14 *661:40 7.51285e-05
35 *171:14 *661:53 0.000552831
36 *174:18 *661:34 0.000322029
37 *174:18 *661:40 0.000112228
38 *174:31 *661:32 0
39 *174:31 *661:34 0
40 *181:6 *1372:B 0
41 *209:8 *661:32 0
42 *209:24 *1372:B 0
43 *209:24 *661:32 0.000144768
44 *209:24 *661:34 6.00631e-05
45 *256:10 *661:26 0.000428061
46 *256:10 *661:32 0.000182624
47 *256:10 *661:104 0.000322935
48 *256:18 *661:104 0.000153207
49 *256:37 *661:104 0.00144003
50 *273:20 *661:110 0
51 *638:45 *661:104 0.000182626
52 *641:28 *661:110 8.0216e-05
53 *656:26 *1382:B 1.54556e-05
54 *656:37 *1382:B 8.02379e-05
55 *657:12 *1361:B 0.000143325
56 *657:12 *661:24 4.77425e-05
57 *657:41 *1393:C 8.00842e-05
58 *657:41 *661:40 0.00023525
59 *659:26 *661:34 1.54008e-05
60 *659:26 *661:40 0.000175721
61 *659:41 *661:34 0.000289687
62 *660:20 *661:26 0.000450157
63 *660:20 *661:32 2.20966e-05
64 *660:20 *661:104 0.00023709
*RES
1 *1893:X *1361:B 41.854 
2 *1893:X *661:24 40.3193 
3 *661:24 *661:26 2.0806 
4 *661:26 *661:32 21.8128 
5 *661:32 *661:34 3.9964 
6 *661:34 *661:40 22.5235 
7 *661:40 *1393:C 40.7519 
8 *661:40 *661:53 22.575 
9 *661:53 *1382:B 23.6153 
10 *661:53 *1363:A 20.7519 
11 *661:34 *1362:B 20 
12 *661:32 *1353:A 20 
13 *661:26 *1372:B 40.9682 
14 *661:24 *661:104 31.3094 
15 *661:104 *661:110 41.8334 
16 *661:110 *1373:A 20 
*END

*D_NET *662 0.00155429
*CONN
*I *2003:A I *D sg13cmos5l_buf_1
*I *1833:X O *D sg13cmos5l_buf_1
*CAP
1 *2003:A 0.000138372
2 *1833:X 0.000360862
3 *662:8 0.000499233
4 *662:8 *688:16 0
5 *662:8 *774:25 0.000555822
6 *33:10 *662:8 0
7 *136:8 *662:8 0
8 *639:10 *662:8 0
9 *639:39 *662:8 0
*RES
1 *1833:X *662:8 45.047 
2 *662:8 *2003:A 41.4008 
*END

*D_NET *663 0.0222596
*CONN
*I *1401:A I *D sg13cmos5l_or2_1
*I *1354:A_N I *D sg13cmos5l_nand2b_1
*I *1447:B I *D sg13cmos5l_nor4_1
*I *1384:A I *D sg13cmos5l_xnor2_1
*I *1494:A I *D sg13cmos5l_nor2_1
*I *1400:A I *D sg13cmos5l_nor2_1
*I *1893:A I *D sg13cmos5l_buf_1
*I *1371:B_N I *D sg13cmos5l_nor2b_1
*I *1894:X O *D sg13cmos5l_buf_1
*CAP
1 *1401:A 9.64976e-05
2 *1354:A_N 0
3 *1447:B 0.000401847
4 *1384:A 0.000116643
5 *1494:A 0
6 *1400:A 0
7 *1893:A 0
8 *1371:B_N 0
9 *1894:X 0.000104711
10 *663:105 0.000493066
11 *663:87 0.000308901
12 *663:79 0.00214376
13 *663:69 0.00201285
14 *663:65 0.00105654
15 *663:59 0.001165
16 *663:55 0.000339118
17 *663:46 0.000664842
18 *663:28 0.000620952
19 *663:16 0.000796176
20 *663:14 0.000882358
21 *663:8 0.000311043
22 *1384:A *1831:RESET_B 0.000208747
23 *1384:A *665:69 0.000208747
24 *1401:A *665:51 0
25 *1447:B *1447:C 0.000273946
26 *1447:B *665:51 1.54556e-05
27 *1447:B *665:90 0.000194308
28 *663:14 *665:38 0
29 *663:46 *665:42 0.00012816
30 *663:79 *1751:A_N 0
31 *663:79 *712:35 0
32 *663:79 *713:10 0
33 *663:105 *665:51 0.000144484
34 *663:105 *760:10 0
35 *1361:C *663:28 0
36 *1385:B *663:28 0
37 *1402:A0 *1401:A 0
38 *1402:A0 *663:46 0.000607719
39 *1434:A2 *663:14 4.78743e-05
40 *1434:A2 *663:46 0
41 *1447:A *1447:B 1.54008e-05
42 *1447:A *663:28 7.65627e-05
43 *1498:A *663:87 0.000130042
44 *1743:B *663:79 0.00033788
45 *1753:A1 *663:79 0.000562305
46 *1861:A *1447:B 0
47 *24:16 *663:79 0
48 *49:12 *1447:B 0
49 *135:42 *663:65 0
50 *135:46 *663:65 0.000588728
51 *135:52 *663:65 0.000875946
52 *163:8 *1401:A 4.70653e-05
53 *163:8 *663:55 0
54 *163:16 *663:59 0.00012816
55 *163:16 *663:65 7.51285e-05
56 *163:29 *1401:A 8.01118e-05
57 *163:50 *663:46 0
58 *163:50 *663:55 8.00739e-05
59 *169:12 *663:65 0
60 *170:53 *663:46 0
61 *180:12 *663:28 0.000284417
62 *193:33 *663:28 0
63 *203:41 *663:59 0
64 *203:41 *663:65 0
65 *209:8 *663:46 0
66 *209:24 *663:28 0
67 *238:12 *663:28 0
68 *287:29 *663:79 0
69 *299:22 *663:69 0.000321483
70 *299:22 *663:79 0.000448209
71 *300:14 *663:79 0
72 *300:32 *663:69 0.000343579
73 *300:32 *663:79 0.00103899
74 *308:72 *663:79 0
75 *364:32 *663:79 0
76 *521:8 *663:79 4.70962e-05
77 *523:10 *663:79 0.000240614
78 *524:16 *663:87 0
79 *544:164 *1447:B 0
80 *544:164 *663:105 0
81 *561:70 *663:87 0.000123899
82 *595:37 *663:79 0.000398256
83 *624:12 *1401:A 0
84 *624:12 *663:46 4.77425e-05
85 *624:12 *663:55 0.000144706
86 *626:45 *663:14 8.00522e-05
87 *628:10 *663:8 0.000556585
88 *636:93 *663:8 0.000556585
89 *638:51 *663:16 4.78743e-05
90 *638:51 *663:28 0.000225913
91 *638:61 *663:28 4.77537e-05
92 *638:75 *663:16 0
93 *638:83 *663:46 0.000235065
94 *657:12 *663:14 0
95 *657:12 *663:16 0.000258172
96 *657:12 *663:28 0.000241116
97 *658:35 *663:28 0.000182624
98 *659:41 *663:28 4.77425e-05
*RES
1 *1894:X *663:8 42.575 
2 *663:8 *663:14 21.9673 
3 *663:14 *663:16 1.8334 
4 *663:16 *663:28 46.4993 
5 *663:28 *1371:B_N 20 
6 *663:16 *1893:A 20 
7 *663:14 *663:46 45.3663 
8 *663:46 *1400:A 20 
9 *663:46 *663:55 1.5656 
10 *663:55 *663:59 20.8446 
11 *663:59 *663:65 31.021 
12 *663:65 *663:69 21.5862 
13 *663:69 *663:79 41.3004 
14 *663:79 *663:87 42.7398 
15 *663:87 *1494:A 20 
16 *663:69 *1384:A 41.4008 
17 *663:59 *663:105 20.9682 
18 *663:105 *1447:B 24.4496 
19 *663:105 *1354:A_N 20 
20 *663:55 *1401:A 20.9476 
*END

*D_NET *664 0.00901569
*CONN
*I *1374:A1 I *D sg13cmos5l_a22oi_1
*I *1353:B_N I *D sg13cmos5l_nor2b_1
*I *1372:A_N I *D sg13cmos5l_nand2b_1
*I *1371:A I *D sg13cmos5l_nor2b_1
*I *1363:B I *D sg13cmos5l_and2_1
*I *1356:B I *D sg13cmos5l_nand3_1
*I *1355:B I *D sg13cmos5l_and3_1
*I *1393:A_N I *D sg13cmos5l_nand3b_1
*I *1895:X O *D sg13cmos5l_buf_1
*CAP
1 *1374:A1 0
2 *1353:B_N 0.000120549
3 *1372:A_N 0
4 *1371:A 0
5 *1363:B 0
6 *1356:B 0.000375935
7 *1355:B 2.60565e-05
8 *1393:A_N 6.83192e-05
9 *1895:X 0
10 *664:111 0.000307247
11 *664:81 0.000279621
12 *664:75 0.000496781
13 *664:63 0.000161274
14 *664:29 0.000459956
15 *664:16 0.000321901
16 *664:12 0.000407592
17 *664:10 0.000444675
18 *664:4 0.000424435
19 *1353:B_N *665:107 7.51285e-05
20 *664:10 *1895:A 0
21 *664:75 *1895:A 0
22 *664:81 *665:107 0.000234888
23 *664:111 *1895:A 0
24 *1356:A *1356:B 1.54008e-05
25 *1361:B *664:10 0
26 *1361:B *664:75 0
27 *1361:C *664:10 0.000337353
28 *1361:C *664:12 4.77425e-05
29 *1374:B1 *664:111 0.000112426
30 *1379:A2 *664:10 8.00842e-05
31 *1382:B *1356:B 0
32 *1393:C *1393:A_N 1.54008e-05
33 *1393:C *664:16 0
34 *1434:A2 *664:111 0.000183564
35 *1890:A *1353:B_N 0.000289628
36 *1890:A *664:81 0
37 *1890:A *664:111 0.000144877
38 *1955:A *1353:B_N 4.77425e-05
39 *160:10 *1356:B 0.000552831
40 *160:77 *664:63 0.000181192
41 *162:8 *1353:B_N 7.65627e-05
42 *165:16 *1356:B 0
43 *170:18 *664:81 0
44 *171:14 *664:16 0
45 *172:54 *1356:B 0.00011211
46 *174:18 *664:63 0.000234224
47 *174:31 *1353:B_N 4.77425e-05
48 *174:85 *664:63 4.77425e-05
49 *180:12 *664:10 0.000240196
50 *181:12 *664:81 0.000236596
51 *193:58 *1356:B 0.000143962
52 *209:24 *1393:A_N 0
53 *209:24 *664:12 0
54 *290:28 *664:63 0.00023547
55 *551:12 *1356:B 0.000658895
56 *551:12 *1393:A_N 0.00012816
57 *551:12 *664:29 0.000181192
58 *636:33 *664:29 0
59 *656:37 *1355:B 4.77425e-05
60 *656:52 *664:63 0.000106064
61 *656:54 *664:63 7.51285e-05
62 *657:12 *664:75 0
63 *657:12 *664:111 0
64 *658:41 *1355:B 4.77425e-05
65 *658:41 *664:16 0
66 *660:20 *664:111 0.000183564
*RES
1 *1895:X *664:4 20 
2 *664:4 *664:10 4.017 
3 *664:10 *664:12 0.5356 
4 *664:12 *664:16 21.6171 
5 *664:16 *1393:A_N 40.9167 
6 *664:16 *664:29 0.8446 
7 *664:29 *1355:B 40.3193 
8 *664:29 *1356:B 45.4693 
9 *664:12 *664:63 42.8222 
10 *664:63 *1363:B 20 
11 *664:10 *1371:A 20 
12 *664:4 *664:75 0.3193 
13 *664:75 *664:81 22.1527 
14 *664:81 *1372:A_N 40 
15 *664:81 *1353:B_N 41.9776 
16 *664:75 *664:111 43.4299 
17 *664:111 *1374:A1 20 
*END

*D_NET *665 0.0157054
*CONN
*I *1400:B I *D sg13cmos5l_nor2_1
*I *1895:A I *D sg13cmos5l_buf_1
*I *1379:B2 I *D sg13cmos5l_a22oi_1
*I *1447:C I *D sg13cmos5l_nor4_1
*I *1401:B I *D sg13cmos5l_or2_1
*I *1761:A I *D sg13cmos5l_xor2_1
*I *1384:B I *D sg13cmos5l_xnor2_1
*I *1354:B I *D sg13cmos5l_nand2b_1
*I *1896:X O *D sg13cmos5l_buf_1
*CAP
1 *1400:B 0
2 *1895:A 0.000115929
3 *1379:B2 0.000162438
4 *1447:C 0.000190518
5 *1401:B 2.76351e-05
6 *1761:A 0
7 *1384:B 0
8 *1354:B 0
9 *1896:X 0.000100533
10 *665:107 0.000713316
11 *665:90 0.000844182
12 *665:69 0.000571407
13 *665:61 0.00122313
14 *665:51 0.000907899
15 *665:42 0.000608131
16 *665:38 0.000886434
17 *665:22 0.00101544
18 *665:12 0.000390412
19 *665:12 *1439:A1 7.54103e-05
20 *665:51 *740:71 1.54556e-05
21 *665:51 *760:10 0
22 *665:61 *740:71 0
23 *665:69 *1831:RESET_B 0
24 *1353:B_N *665:107 7.51285e-05
25 *1360:A1 *665:51 8.02269e-05
26 *1374:B1 *1895:A 4.77702e-05
27 *1379:A2 *1379:B2 0.000112426
28 *1379:A2 *665:107 0
29 *1384:A *665:69 0.000208747
30 *1401:A *665:51 0
31 *1402:A0 *665:38 0.000571564
32 *1402:A0 *665:51 0
33 *1406:B1 *665:61 0
34 *1437:B1 *665:38 0
35 *1439:B1 *665:12 0
36 *1439:B1 *665:38 1.51e-05
37 *1439:A2 *665:38 0
38 *1446:A *665:61 0
39 *1447:B *1447:C 0.000273946
40 *1447:B *665:51 1.54556e-05
41 *1447:B *665:90 0.000194308
42 *1448:A *665:12 0
43 *1477:B1 *665:61 8.01612e-05
44 *1504:A2 *665:61 0
45 *1890:A *665:107 0
46 *49:12 *665:107 0
47 *162:8 *665:107 0
48 *162:54 *665:38 0
49 *163:8 *1401:B 0
50 *163:8 *665:51 9.54193e-05
51 *163:8 *665:90 0
52 *163:29 *665:51 6.4711e-05
53 *163:50 *1447:C 0.000176542
54 *163:50 *665:90 0.000339306
55 *163:50 *665:107 0
56 *170:18 *1379:B2 0
57 *170:18 *665:107 0.000128408
58 *170:29 *665:38 7.65627e-05
59 *170:53 *665:38 0.000289615
60 *181:6 *1379:B2 1.54008e-05
61 *188:8 *1379:B2 0.000176431
62 *193:12 *665:69 8.0194e-05
63 *203:41 *665:38 0.000607486
64 *209:24 *1379:B2 0
65 *256:10 *1447:C 0
66 *257:14 *665:12 4.80449e-05
67 *257:16 *665:61 0
68 *270:14 *665:61 0.00124669
69 *270:14 *665:69 0.000128247
70 *283:20 *665:22 7.47067e-05
71 *283:40 *665:61 0.000608129
72 *283:40 *665:69 0
73 *287:21 *665:69 0.000234727
74 *287:29 *665:69 0.000818821
75 *618:10 *665:61 1.54008e-05
76 *626:45 *665:38 0.000177077
77 *636:93 *665:38 0
78 *636:107 *665:61 0.000272867
79 *638:98 *665:38 0
80 *663:14 *665:38 0
81 *663:46 *665:42 0.00012816
82 *663:105 *665:51 0.000144484
83 *664:10 *1895:A 0
84 *664:75 *1895:A 0
85 *664:81 *665:107 0.000234888
86 *664:111 *1895:A 0
*RES
1 *1896:X *665:12 41.0197 
2 *665:12 *665:22 42.7912 
3 *665:22 *665:38 48.8683 
4 *665:38 *665:42 21.5862 
5 *665:42 *1354:B 20 
6 *665:42 *665:51 2.6162 
7 *665:51 *665:61 48.5902 
8 *665:61 *665:69 47.0658 
9 *665:69 *1384:B 20 
10 *665:61 *1761:A 20 
11 *665:51 *1401:B 20.3502 
12 *665:42 *665:90 2.6162 
13 *665:90 *1447:C 22.0497 
14 *665:90 *665:107 44.6968 
15 *665:107 *1379:B2 21.6171 
16 *665:107 *1895:A 21.1021 
17 *665:38 *1400:B 40 
*END

*D_NET *666 0.00920774
*CONN
*I *1328:A1 I *D sg13cmos5l_o21ai_1
*I *1327:A I *D sg13cmos5l_and2_1
*I *1459:A I *D sg13cmos5l_nor3_1
*I *1375:A I *D sg13cmos5l_nor2_1
*I *1392:A I *D sg13cmos5l_nand2_1
*I *1468:A1 I *D sg13cmos5l_a22oi_1
*I *1417:B1 I *D sg13cmos5l_o21ai_1
*I *1431:A I *D sg13cmos5l_nor3_1
*I *1897:X O *D sg13cmos5l_buf_1
*CAP
1 *1328:A1 0.000101795
2 *1327:A 0
3 *1459:A 0
4 *1375:A 3.34444e-05
5 *1392:A 0
6 *1468:A1 0
7 *1417:B1 0.000260287
8 *1431:A 4.00302e-05
9 *1897:X 0.000292909
10 *666:92 0.000345949
11 *666:79 0.000763676
12 *666:62 0.000679608
13 *666:32 0.00074987
14 *666:22 0.00089568
15 *666:16 0.00047192
16 *666:12 0.000445344
17 *1328:A1 *680:61 0
18 *666:22 *735:33 0
19 *666:32 *1240:A 0.000393736
20 *666:32 *735:35 0.000159096
21 *666:92 *737:14 0
22 *1375:B *666:62 0.000129077
23 *1417:A1 *1417:B1 0
24 *1437:A2 *1417:B1 0
25 *1457:A *666:62 0
26 *1457:A *666:79 0
27 *1468:B1 *666:22 4.77425e-05
28 *1468:B1 *666:32 0.000287256
29 *1469:B1 *666:22 0
30 *1469:A2 *666:22 0
31 *1470:B *666:92 0
32 *87:16 *1417:B1 8.00842e-05
33 *87:16 *1431:A 4.77425e-05
34 *87:16 *666:32 0
35 *135:20 *666:79 0
36 *135:36 *1328:A1 0
37 *135:36 *666:79 0
38 *135:36 *666:92 0
39 *135:100 *666:92 0
40 *143:25 *1328:A1 0
41 *143:31 *666:92 0
42 *145:10 *1328:A1 0
43 *160:43 *666:79 0
44 *173:20 *666:12 0
45 *181:12 *666:32 0.000129679
46 *183:10 *666:62 0.000128663
47 *189:8 *666:32 0.00012816
48 *247:22 *666:12 0
49 *247:22 *666:62 0
50 *267:8 *666:79 0.000871387
51 *274:8 *666:32 0.000340704
52 *276:14 *666:22 0.0002736
53 *278:14 *1375:A 4.77425e-05
54 *278:14 *666:22 0
55 *627:12 *666:12 0
56 *627:12 *666:92 0
57 *636:75 *666:32 0.00023803
58 *637:84 *1417:B1 1.54008e-05
59 *637:98 *1417:B1 0.000149274
60 *638:45 *666:32 0.000450473
61 *641:48 *666:12 0
62 *641:48 *666:16 3.23417e-05
63 *641:48 *666:22 0.000177043
*RES
1 *1897:X *666:12 42.5956 
2 *666:12 *666:16 20.3193 
3 *666:16 *666:22 4.4496 
4 *666:22 *666:32 46.9525 
5 *666:32 *1431:A 20.3193 
6 *666:32 *1417:B1 22.5029 
7 *666:22 *1468:A1 20 
8 *666:16 *1392:A 20 
9 *666:12 *666:62 1.5862 
10 *666:62 *1375:A 40.3193 
11 *666:62 *666:79 26.2109 
12 *666:79 *1459:A 20 
13 *666:79 *666:92 42.2458 
14 *666:92 *1327:A 20 
15 *666:92 *1328:A1 21.133 
*END

*D_NET *667 0.0147472
*CONN
*I *1453:A I *D sg13cmos5l_nand2_1
*I *1322:A I *D sg13cmos5l_and3_1
*I *1321:B1 I *D sg13cmos5l_a21oi_1
*I *1389:B I *D sg13cmos5l_nand2b_1
*I *1241:A I *D sg13cmos5l_inv_1
*I *1464:A1 I *D sg13cmos5l_a221oi_1
*I *1424:B1 I *D sg13cmos5l_a21oi_1
*I *1428:A I *D sg13cmos5l_nand3_1
*I *1898:X O *D sg13cmos5l_buf_1
*CAP
1 *1453:A 0
2 *1322:A 0
3 *1321:B1 5.61002e-05
4 *1389:B 0.000287551
5 *1241:A 0
6 *1464:A1 0.000131785
7 *1424:B1 7.51532e-05
8 *1428:A 9.31537e-05
9 *1898:X 0
10 *667:113 0.000489405
11 *667:42 0.000431386
12 *667:32 0.000615596
13 *667:30 0.000754086
14 *667:20 0.000785556
15 *667:18 0.000890303
16 *667:14 0.000378897
17 *667:10 0.00141734
18 *667:4 0.00182123
19 *1321:B1 *680:43 8.00842e-05
20 *1389:B *680:43 0
21 *667:10 *1322:B 0
22 *667:10 *762:12 0.000144861
23 *667:14 *1388:A1 0
24 *667:14 *668:45 0.000287343
25 *667:18 *1319:A1 0.000181608
26 *667:18 *1388:A1 0
27 *667:18 *668:45 0.000106064
28 *667:18 *668:64 0
29 *667:113 *1802:CLK 0.000208889
30 *667:113 *668:10 0.000819432
31 *1315:A *667:10 0
32 *1373:B *667:42 2.23421e-05
33 *1428:C *1424:B1 8.00842e-05
34 *1453:B *667:113 0
35 *1464:B1 *1464:A1 0.000175618
36 *1482:B *667:30 0.000373595
37 *1482:B *667:32 0.000556815
38 *1779:CLK *667:10 0
39 *1874:A *667:10 0.000823231
40 *1891:A *667:20 0
41 *1891:A *667:30 0
42 *160:18 *667:20 0
43 *160:22 *667:30 0
44 *170:70 *1428:A 0
45 *172:14 *667:32 0.000159568
46 *172:14 *667:42 0.00012938
47 *175:14 *667:42 0
48 *182:18 *1389:B 0.000144894
49 *188:52 *1389:B 1.54556e-05
50 *190:16 *667:20 0
51 *231:10 *667:42 7.68089e-05
52 *231:27 *667:32 0.00018289
53 *231:27 *667:42 5.42181e-05
54 *231:46 *667:30 0.00018354
55 *231:46 *667:32 0
56 *231:65 *1389:B 0.000145184
57 *233:16 *1424:B1 4.77425e-05
58 *235:8 *667:32 0.000235345
59 *237:8 *667:42 7.64e-05
60 *247:10 *667:30 0
61 *262:10 *667:113 0.000176586
62 *262:20 *667:18 7.55683e-05
63 *262:20 *667:20 0
64 *265:12 *1389:B 0
65 *565:71 *667:10 0
66 *582:10 *667:10 0.000531537
67 *621:12 *667:10 0
68 *636:37 *667:42 0.00031114
69 *636:52 *667:42 6.56478e-05
70 *636:58 *1428:A 4.77425e-05
71 *651:22 *667:10 0
*RES
1 *1898:X *667:4 20 
2 *667:4 *667:10 12.7308 
3 *667:10 *667:14 21.339 
4 *667:14 *667:18 3.1106 
5 *667:18 *667:20 3.5638 
6 *667:20 *667:30 44.4187 
7 *667:30 *667:32 3.3166 
8 *667:32 *667:42 43.6771 
9 *667:42 *1428:A 40.8858 
10 *667:32 *1424:B1 40.7519 
11 *667:30 *1464:A1 41.1845 
12 *667:20 *1241:A 40 
13 *667:18 *1389:B 42.9664 
14 *667:14 *1321:B1 40.5356 
15 *667:10 *1322:A 20 
16 *667:4 *667:113 45.2118 
17 *667:113 *1453:A 20 
*END

*D_NET *668 0.0183437
*CONN
*I *1322:B I *D sg13cmos5l_and3_1
*I *1321:A1 I *D sg13cmos5l_a21oi_1
*I *1426:A_N I *D sg13cmos5l_nand2b_1
*I *1425:A I *D sg13cmos5l_nor2_1
*I *1420:A I *D sg13cmos5l_and2_1
*I *1319:A1 I *D sg13cmos5l_o21ai_1
*I *1318:A1 I *D sg13cmos5l_a21oi_1
*I *1381:A I *D sg13cmos5l_nor2_1
*I *1899:X O *D sg13cmos5l_buf_1
*CAP
1 *1322:B 3.87642e-05
2 *1321:A1 2.18538e-05
3 *1426:A_N 2.85486e-05
4 *1425:A 0
5 *1420:A 0
6 *1319:A1 7.03396e-05
7 *1318:A1 0
8 *1381:A 0.000104322
9 *1899:X 0.00120348
10 *668:103 0.000851651
11 *668:87 0.001035
12 *668:78 0.000599372
13 *668:68 0.000796591
14 *668:64 0.0011477
15 *668:58 0.00112714
16 *668:45 0.000199287
17 *668:41 0.000843766
18 *668:30 0.00124901
19 *668:10 0.000734851
20 *1321:A1 *680:43 4.77425e-05
21 *668:10 *688:10 4.73096e-05
22 *668:30 *1777:RESET_B 0.00014461
23 *668:30 *688:10 0.000468099
24 *668:41 *1950:A 0
25 *668:41 *688:37 0
26 *668:41 *733:10 0
27 *668:64 *1388:A1 0.000716255
28 *668:64 *680:43 0.000209505
29 *668:103 *1396:B1 0
30 *1364:A2 *668:103 8.16242e-05
31 *1398:A2 *668:103 0.000112826
32 *1424:A2 *668:87 4.77425e-05
33 *1426:B *668:64 0.000128951
34 *1426:B *668:87 0.000111016
35 *1427:A *668:78 0
36 *11:12 *668:10 4.73096e-05
37 *11:12 *668:30 0.000242291
38 *136:25 *1381:A 0.000176834
39 *137:16 *668:30 4.78524e-05
40 *137:27 *668:64 0.000177164
41 *137:38 *1321:A1 3.23417e-05
42 *137:38 *668:64 4.77425e-05
43 *137:44 *1319:A1 7.51285e-05
44 *137:44 *668:45 0.000340375
45 *140:8 *668:41 0
46 *140:8 *668:45 0
47 *160:18 *668:64 0
48 *170:70 *668:103 0
49 *170:80 *668:103 0.000207854
50 *171:49 *668:64 0
51 *172:54 *668:78 0
52 *173:20 *668:103 0
53 *182:18 *668:64 0
54 *182:40 *1381:A 0
55 *190:8 *1381:A 0.000112404
56 *191:12 *668:78 0
57 *195:10 *668:64 0
58 *196:24 *668:87 0
59 *229:8 *668:78 0.000235556
60 *229:12 *668:78 0
61 *229:27 *668:78 0
62 *230:10 *668:78 7.91362e-05
63 *231:65 *668:64 0.000494278
64 *232:8 *668:64 0
65 *233:16 *668:103 0
66 *234:8 *668:103 0.000341621
67 *256:37 *668:103 0.000449137
68 *262:20 *668:64 0
69 *551:12 *668:64 0.000769211
70 *621:12 *668:41 0
71 *623:8 *668:30 0.000112563
72 *623:8 *668:41 0.000793135
73 *637:114 *668:78 0
74 *639:10 *668:10 0
75 *659:14 *668:64 0
76 *659:16 *668:78 0
77 *667:10 *1322:B 0
78 *667:14 *668:45 0.000287343
79 *667:18 *1319:A1 0.000181608
80 *667:18 *668:45 0.000106064
81 *667:18 *668:64 0
82 *667:113 *668:10 0.000819432
*RES
1 *1899:X *668:10 46.3551 
2 *668:10 *1381:A 41.1845 
3 *1899:X *668:30 25.9637 
4 *668:30 *1318:A1 20 
5 *668:30 *668:41 27.5602 
6 *668:41 *668:45 2.3999 
7 *668:45 *1319:A1 41.1639 
8 *668:45 *668:58 20 
9 *668:58 *668:64 32.875 
10 *668:64 *668:68 20.5356 
11 *668:68 *668:78 46.0255 
12 *668:78 *1420:A 20 
13 *668:68 *668:87 1.5347 
14 *668:87 *668:103 49.1464 
15 *668:103 *1425:A 20 
16 *668:87 *1426:A_N 20.3502 
17 *668:58 *1321:A1 20.3193 
18 *668:41 *1322:B 40.3502 
*END

*D_NET *669 0.0119348
*CONN
*I *1768:RESET_B I *D sg13cmos5l_dfrbpq_1
*I *1767:RESET_B I *D sg13cmos5l_dfrbpq_1
*I *1776:RESET_B I *D sg13cmos5l_dfrbpq_1
*I *1766:RESET_B I *D sg13cmos5l_dfrbpq_1
*I *1818:RESET_B I *D sg13cmos5l_dfrbpq_1
*I *1817:RESET_B I *D sg13cmos5l_dfrbpq_1
*I *1770:RESET_B I *D sg13cmos5l_dfrbpq_1
*I *1769:RESET_B I *D sg13cmos5l_dfrbpq_1
*I *1900:X O *D sg13cmos5l_buf_1
*CAP
1 *1768:RESET_B 1.80494e-05
2 *1767:RESET_B 0
3 *1776:RESET_B 0
4 *1766:RESET_B 0
5 *1818:RESET_B 0.00042288
6 *1817:RESET_B 2.77263e-05
7 *1770:RESET_B 0.000431041
8 *1769:RESET_B 0
9 *1900:X 0.000182244
10 *669:64 0.000395989
11 *669:58 0.000618577
12 *669:56 0.000587528
13 *669:54 0.000459466
14 *669:36 0.00113488
15 *669:30 0.000951788
16 *669:16 0.000857736
17 *669:10 0.000799974
18 *1818:RESET_B *1944:A 0
19 *1818:RESET_B *719:12 0
20 *669:10 *671:47 0.000236682
21 *669:10 *749:8 0
22 *669:16 *1938:A 0
23 *669:16 *671:49 0
24 *669:36 *719:12 0
25 *1276:B *669:36 0
26 *1279:B1 *669:64 0.000395482
27 *1770:CLK *1770:RESET_B 0
28 *1770:CLK *1818:RESET_B 0
29 *1776:CLK *669:58 0
30 *1818:D *1818:RESET_B 0
31 *99:22 *669:64 0
32 *100:10 *669:10 4.77425e-05
33 *102:8 *669:64 7.52149e-05
34 *102:16 *1768:RESET_B 4.77537e-05
35 *102:16 *669:56 0.000563631
36 *102:16 *669:58 0.000337353
37 *102:25 *669:64 0.000608354
38 *105:8 *669:30 0
39 *105:8 *669:54 0
40 *106:25 *1818:RESET_B 0
41 *106:25 *669:36 0
42 *379:24 *669:10 0.00012816
43 *379:24 *669:30 0.000638546
44 *379:24 *669:54 0.000213286
45 *440:16 *669:64 0
46 *560:18 *669:36 0
47 *560:26 *669:56 0
48 *603:14 *669:16 8.00842e-05
49 *603:22 *669:10 0
50 *616:10 *1770:RESET_B 0.00033953
51 *620:10 *1770:RESET_B 0
52 *650:70 *669:10 0.000344508
53 *652:20 *1770:RESET_B 0
54 *652:20 *669:16 0.000627834
55 *654:61 *669:10 0.00023464
56 *654:61 *669:30 0.00012816
*RES
1 *1900:X *669:10 42.8943 
2 *669:10 *669:16 24.5629 
3 *669:16 *1769:RESET_B 20 
4 *669:16 *1770:RESET_B 23.9964 
5 *669:10 *669:30 3.0694 
6 *669:30 *669:36 25.2725 
7 *669:36 *1817:RESET_B 20.3502 
8 *669:36 *1818:RESET_B 22.9844 
9 *669:30 *669:54 21.0918 
10 *669:54 *669:56 3.7801 
11 *669:56 *669:58 2.266 
12 *669:58 *669:64 44.7998 
13 *669:64 *1766:RESET_B 20 
14 *669:58 *1776:RESET_B 20 
15 *669:56 *1767:RESET_B 20 
16 *669:54 *1768:RESET_B 20.3193 
*END

*D_NET *670 0.00901088
*CONN
*I *1773:RESET_B I *D sg13cmos5l_dfrbpq_1
*I *1772:RESET_B I *D sg13cmos5l_dfrbpq_1
*I *1820:RESET_B I *D sg13cmos5l_dfrbpq_1
*I *1775:RESET_B I *D sg13cmos5l_dfrbpq_1
*I *1774:RESET_B I *D sg13cmos5l_dfrbpq_1
*I *1821:RESET_B I *D sg13cmos5l_dfrbpq_1
*I *1819:RESET_B I *D sg13cmos5l_dfrbpq_1
*I *1771:RESET_B I *D sg13cmos5l_dfrbpq_1
*I *1901:X O *D sg13cmos5l_buf_1
*CAP
1 *1773:RESET_B 0.000300383
2 *1772:RESET_B 0
3 *1820:RESET_B 0
4 *1775:RESET_B 0.000492286
5 *1774:RESET_B 0.00029415
6 *1821:RESET_B 0
7 *1819:RESET_B 0
8 *1771:RESET_B 0.000203634
9 *1901:X 0
10 *670:51 0.00105369
11 *670:42 0.000678923
12 *670:38 0.000705286
13 *670:32 0.00117994
14 *670:19 0.00083061
15 *670:4 0.000448299
16 *1771:RESET_B *671:49 0
17 *670:19 *671:49 0
18 *670:19 *671:53 0
19 *1289:A *1771:RESET_B 0
20 *1308:A1 *1774:RESET_B 0
21 *1308:A1 *1775:RESET_B 0.00018211
22 *1689:B1 *670:32 0
23 *1774:D *1774:RESET_B 0
24 *1775:D *1775:RESET_B 0
25 *1819:CLK *670:32 0
26 *1819:CLK *670:38 1.54008e-05
27 *1819:CLK *670:42 0
28 *1920:A *1775:RESET_B 0
29 *35:14 *1773:RESET_B 0.000598318
30 *35:14 *1775:RESET_B 0
31 *35:14 *670:32 8.00951e-05
32 *35:14 *670:42 0
33 *35:14 *670:51 0
34 *64:8 *670:19 0
35 *64:8 *670:32 0
36 *65:8 *670:32 0
37 *127:16 *1774:RESET_B 0.000448427
38 *132:10 *1775:RESET_B 0.000288088
39 *494:14 *1773:RESET_B 0
40 *494:14 *670:38 1.54556e-05
41 *494:14 *670:42 0
42 *562:27 *670:51 0.000144765
43 *562:29 *670:42 0.000337956
44 *562:29 *670:51 0.000257346
45 *562:38 *670:38 0
46 *562:38 *670:42 0.000274529
47 *589:8 *1775:RESET_B 0
48 *589:14 *1774:RESET_B 0.000181192
49 *589:14 *1775:RESET_B 0
50 *632:14 *1774:RESET_B 0
51 *646:59 *670:19 0
52 *647:42 *670:19 0
53 *647:42 *670:32 0
*RES
1 *1901:X *670:4 20 
2 *670:4 *1771:RESET_B 22.2145 
3 *670:4 *670:19 22.3381 
4 *670:19 *1819:RESET_B 40 
5 *670:19 *670:32 25.15 
6 *670:32 *670:38 3.708 
7 *670:38 *670:42 4.5938 
8 *670:42 *1821:RESET_B 20 
9 *670:42 *670:51 22.6986 
10 *670:51 *1774:RESET_B 43.6462 
11 *670:51 *1775:RESET_B 44.7174 
12 *670:38 *1820:RESET_B 20 
13 *670:32 *1772:RESET_B 20 
14 *670:32 *1773:RESET_B 23.9964 
*END

*D_NET *671 0.0247006
*CONN
*I *1901:A I *D sg13cmos5l_buf_1
*I *1822:RESET_B I *D sg13cmos5l_dfrbpq_1
*I *1900:A I *D sg13cmos5l_buf_1
*I *1816:RESET_B I *D sg13cmos5l_dfrbpq_1
*I *1902:X O *D sg13cmos5l_buf_1
*CAP
1 *1901:A 2.77263e-05
2 *1822:RESET_B 0
3 *1900:A 0
4 *1816:RESET_B 0
5 *1902:X 0.000394149
6 *671:59 0.00105142
7 *671:53 0.00328984
8 *671:49 0.00480129
9 *671:47 0.00265285
10 *671:34 0.00030119
11 *671:22 0.00147369
12 *671:10 0.00168435
13 *671:10 *672:72 0.000110967
14 *671:22 *672:62 0
15 *671:22 *672:72 0
16 *671:22 *695:43 0.000182218
17 *671:22 *706:114 0.000555203
18 *671:22 *727:16 0
19 *671:49 *1938:A 0
20 *671:53 *1928:A 0
21 *671:53 *742:8 0.000112651
22 *671:59 *1304:B 0.000181608
23 *671:59 *706:36 0
24 *671:59 *718:19 0.00242555
25 *1268:B *671:22 0
26 *1289:A *671:49 0
27 *1724:B1 *671:59 8.00951e-05
28 *1770:D *671:49 8.0216e-05
29 *1771:RESET_B *671:49 0
30 *1771:D *671:49 0.000143932
31 *1774:D *671:53 0.000241089
32 *1819:D *671:53 0
33 *80:42 *671:22 0.000447597
34 *100:10 *671:34 0.000144181
35 *100:10 *671:47 4.77425e-05
36 *101:12 *671:22 0
37 *113:14 *671:49 0
38 *129:14 *671:59 0
39 *563:32 *671:59 0
40 *586:101 *671:59 0.00130399
41 *603:8 *671:22 0.000744436
42 *603:14 *671:22 0.00151339
43 *603:22 *671:47 0.000237012
44 *607:10 *671:53 0
45 *616:10 *671:49 0
46 *617:16 *671:10 1.54556e-05
47 *620:10 *671:49 0
48 *642:101 *671:53 0.000143549
49 *650:70 *671:47 7.65602e-05
50 *669:10 *671:47 0.000236682
51 *669:16 *671:49 0
52 *670:19 *671:49 0
53 *670:19 *671:53 0
*RES
1 *1902:X *671:10 41.9673 
2 *671:10 *671:22 37.6645 
3 *671:22 *1816:RESET_B 20 
4 *1902:X *671:34 21.4008 
5 *671:34 *1900:A 20 
6 *671:34 *671:47 41.9055 
7 *671:47 *671:49 15.4603 
8 *671:49 *671:53 34.3788 
9 *671:53 *671:59 36.6757 
10 *671:59 *1822:RESET_B 20 
11 *671:49 *1901:A 20.3502 
*END

*D_NET *672 0.0359169
*CONN
*I *1811:RESET_B I *D sg13cmos5l_dfrbpq_1
*I *1823:RESET_B I *D sg13cmos5l_dfrbpq_1
*I *1824:RESET_B I *D sg13cmos5l_dfrbpq_1
*I *1765:RESET_B I *D sg13cmos5l_dfrbpq_1
*I *1813:RESET_B I *D sg13cmos5l_dfrbpq_1
*I *1902:A I *D sg13cmos5l_buf_1
*I *1815:RESET_B I *D sg13cmos5l_dfrbpq_1
*I *1814:RESET_B I *D sg13cmos5l_dfrbpq_1
*I *1903:X O *D sg13cmos5l_buf_1
*CAP
1 *1811:RESET_B 0.000197909
2 *1823:RESET_B 2.86039e-05
3 *1824:RESET_B 0
4 *1765:RESET_B 0
5 *1813:RESET_B 0.000330984
6 *1902:A 0
7 *1815:RESET_B 0.00010688
8 *1814:RESET_B 5.68535e-05
9 *1903:X 0.000172729
10 *672:126 0.00194056
11 *672:117 0.000354078
12 *672:105 0.0025649
13 *672:94 6.58768e-05
14 *672:72 0.000535947
15 *672:62 0.00192982
16 *672:45 0.00193495
17 *672:32 0.000719019
18 *672:28 0.000712714
19 *672:24 0.00105601
20 *672:22 0.00141575
21 *672:16 0.000678764
22 *672:10 0.000768893
23 *1813:RESET_B *689:24 0.000872118
24 *672:16 *677:53 0
25 *672:16 *695:26 0.000178985
26 *672:24 *695:26 0
27 *672:32 *689:24 0.00114302
28 *672:45 *689:24 0.00199507
29 *672:45 *714:18 0.00183523
30 *672:62 *689:24 0
31 *672:72 *727:16 0
32 *672:117 *1733:B 0
33 *672:126 *695:14 0
34 *672:126 *695:20 0
35 *1268:B *672:62 0.000267945
36 *1498:A *672:117 0
37 *1569:C *672:117 2.25909e-05
38 *1776:CLK *672:62 0
39 *1811:D *1811:RESET_B 1.54008e-05
40 *80:42 *672:62 0
41 *85:8 *672:22 2.21819e-05
42 *92:20 *672:24 0.000429134
43 *93:24 *672:94 0.000236032
44 *94:12 *672:32 0.00103593
45 *94:16 *672:94 0.000129186
46 *101:12 *672:62 0.00125317
47 *104:14 *672:62 0.00120087
48 *203:18 *672:22 0.00023615
49 *203:18 *672:105 0
50 *203:33 *672:105 0
51 *203:33 *672:126 0
52 *303:18 *672:117 0
53 *307:65 *672:126 0.000472712
54 *312:37 *672:105 0
55 *312:37 *672:126 0
56 *338:65 *672:16 0
57 *338:82 *672:16 0
58 *339:20 *672:45 0
59 *339:20 *672:62 0.00130639
60 *341:26 *672:16 0.000394366
61 *345:8 *672:10 0
62 *348:14 *672:10 0
63 *373:12 *672:126 0
64 *409:12 *672:22 0.000343239
65 *410:75 *672:126 0
66 *414:12 *1813:RESET_B 0.000341119
67 *416:34 *672:22 0
68 *417:14 *672:16 0.00215998
69 *433:18 *672:72 0.000287672
70 *447:16 *672:16 0
71 *524:16 *672:117 0.000449862
72 *525:8 *672:117 0.000342906
73 *561:49 *1813:RESET_B 0
74 *561:49 *672:32 0
75 *563:59 *1811:RESET_B 0.000558293
76 *572:37 *672:105 0
77 *573:10 *672:94 0
78 *594:35 *1811:RESET_B 0
79 *596:10 *1811:RESET_B 0
80 *611:18 *672:24 0.00067349
81 *611:18 *672:28 0.000181464
82 *612:45 *672:16 0.00156979
83 *617:16 *672:62 0
84 *619:87 *672:117 7.08437e-05
85 *635:57 *672:24 0
86 *635:57 *672:105 0
87 *637:29 *672:24 0
88 *637:29 *672:105 0
89 *637:29 *672:126 0
90 *637:39 *672:126 0
91 *652:20 *672:62 0.00020956
92 *655:69 *672:28 0
93 *671:10 *672:72 0.000110967
94 *671:22 *672:62 0
95 *671:22 *672:72 0
*RES
1 *1903:X *672:10 41.3184 
2 *672:10 *672:16 31.6699 
3 *672:16 *672:22 41.5862 
4 *672:22 *672:24 9.4039 
5 *672:24 *672:28 21.8334 
6 *672:28 *672:32 25.2942 
7 *672:32 *1814:RESET_B 20.5356 
8 *672:32 *672:45 29.697 
9 *672:45 *1815:RESET_B 40.9682 
10 *672:45 *672:62 37.8602 
11 *672:62 *672:72 44.7895 
12 *672:72 *1902:A 20 
13 *672:28 *1813:RESET_B 44.5938 
14 *672:24 *672:94 41.0918 
15 *672:94 *1765:RESET_B 20 
16 *672:22 *672:105 4.6968 
17 *672:105 *672:117 44.3981 
18 *672:117 *1824:RESET_B 20 
19 *672:105 *672:126 34.6772 
20 *672:126 *1823:RESET_B 40.3193 
21 *672:126 *1811:RESET_B 42.8943 
*END

*D_NET *673 0.0160626
*CONN
*I *1681:A1 I *D sg13cmos5l_a221oi_1
*I *1669:A1 I *D sg13cmos5l_a221oi_1
*I *1662:A1 I *D sg13cmos5l_a21o_1
*I *1607:B I *D sg13cmos5l_nand2_1
*I *1651:A1 I *D sg13cmos5l_a221oi_1
*I *1626:A2 I *D sg13cmos5l_a221oi_1
*I *1640:A1 I *D sg13cmos5l_a221oi_1
*I *1616:A I *D sg13cmos5l_nand2_1
*I *1904:X O *D sg13cmos5l_buf_1
*CAP
1 *1681:A1 0
2 *1669:A1 0
3 *1662:A1 0
4 *1607:B 0
5 *1651:A1 0
6 *1626:A2 0
7 *1640:A1 0
8 *1616:A 0.000210399
9 *1904:X 0
10 *673:113 0.000413992
11 *673:88 0.000204575
12 *673:82 0.000627671
13 *673:61 0.000432747
14 *673:49 0.000912312
15 *673:43 0.000945751
16 *673:35 0.000922388
17 *673:20 0.000786959
18 *673:16 0.000940953
19 *673:4 0.000811491
20 *673:20 *674:14 0
21 *673:43 *674:14 0
22 *1528:A *673:20 0.000337221
23 *1545:A1 *1616:A 0
24 *1545:A2 *1616:A 0
25 *1626:A1 *673:49 1.27224e-05
26 *1637:B *673:43 0
27 *1637:B *673:49 8.0194e-05
28 *1637:C *673:49 0.000173588
29 *1637:A *673:49 0
30 *1640:B1 *673:61 1.54008e-05
31 *1651:B1 *673:43 9.67706e-05
32 *1651:B1 *673:49 1.54556e-05
33 *1662:B1 *673:82 8.01612e-05
34 *1667:B *673:16 8.00842e-05
35 *1668:A *673:20 0
36 *1669:C1 *673:113 7.94957e-05
37 *1669:B1 *673:20 0.000402797
38 *1669:A2 *673:16 0.000143171
39 *1681:B1 *673:113 1.54008e-05
40 *80:8 *673:82 0.000110829
41 *325:18 *673:16 0.000236681
42 *338:82 *673:88 0
43 *344:14 *673:61 0
44 *347:26 *1616:A 0
45 *348:22 *1616:A 0.000393885
46 *348:22 *673:35 0.000182033
47 *348:22 *673:82 0.00103352
48 *354:16 *673:16 0.000342659
49 *356:22 *673:113 0
50 *365:20 *673:113 0.000425576
51 *365:26 *673:113 7.61537e-05
52 *372:10 *673:88 0
53 *378:16 *673:61 0.000363871
54 *392:12 *673:61 0
55 *393:10 *673:82 0
56 *393:40 *1616:A 0.000394003
57 *393:40 *673:35 0.000158677
58 *393:40 *673:82 0.000583547
59 *411:35 *673:113 0.0008203
60 *416:34 *1616:A 0
61 *416:34 *673:82 0
62 *449:10 *673:49 0
63 *462:12 *673:16 7.51285e-05
64 *608:34 *673:61 0.000763973
65 *608:51 *673:61 0.000143585
66 *635:14 *673:88 0.000557015
67 *648:95 *673:113 0
68 *650:46 *673:61 0.000659513
69 *654:156 *673:82 0
*RES
1 *1904:X *673:4 20 
2 *673:4 *673:16 44.5217 
3 *673:16 *673:20 25.2942 
4 *673:20 *1616:A 43.0926 
5 *673:20 *673:35 0.8446 
6 *673:35 *673:43 23.6462 
7 *673:43 *673:49 4.46247 
8 *673:49 *673:61 46.7285 
9 *673:61 *1640:A1 20 
10 *673:49 *1626:A2 20 
11 *673:43 *1651:A1 20 
12 *673:35 *673:82 26.2006 
13 *673:82 *673:88 42.575 
14 *673:88 *1607:B 20 
15 *673:82 *1662:A1 20 
16 *673:16 *1669:A1 20 
17 *673:4 *673:113 45.5311 
18 *673:113 *1681:A1 20 
*END

*D_NET *674 0.0230748
*CONN
*I *1825:RESET_B I *D sg13cmos5l_dfrbpq_1
*I *1809:RESET_B I *D sg13cmos5l_dfrbpq_1
*I *1763:RESET_B I *D sg13cmos5l_dfrbpq_1
*I *1764:RESET_B I *D sg13cmos5l_dfrbpq_1
*I *1797:RESET_B I *D sg13cmos5l_dfrbpq_1
*I *1796:RESET_B I *D sg13cmos5l_dfrbpq_1
*I *1795:RESET_B I *D sg13cmos5l_dfrbpq_1
*I *1812:RESET_B I *D sg13cmos5l_dfrbpq_1
*I *1905:X O *D sg13cmos5l_buf_1
*CAP
1 *1825:RESET_B 0
2 *1809:RESET_B 0
3 *1763:RESET_B 0
4 *1764:RESET_B 0
5 *1797:RESET_B 0.000309016
6 *1796:RESET_B 0
7 *1795:RESET_B 0
8 *1812:RESET_B 9.31113e-05
9 *1905:X 0.00080158
10 *674:113 0.000304546
11 *674:98 0.000159443
12 *674:68 0.00073477
13 *674:60 0.00167044
14 *674:51 0.00123502
15 *674:45 0.000816365
16 *674:43 0.000860281
17 *674:26 0.00146241
18 *674:22 0.00126496
19 *674:20 0.00262837
20 *674:14 0.00273691
21 *674:20 *756:26 0.00231287
22 *674:22 *1738:B 0
23 *674:43 *690:10 0
24 *674:43 *766:15 0
25 *674:45 *1764:D 0
26 *674:51 *1250:A 0
27 *674:51 *681:18 0
28 *674:51 *716:8 0
29 *674:60 *1795:CLK 0
30 *674:60 *1836:A 0
31 *1261:B *674:26 0
32 *1493:B *674:26 0.000208162
33 *1493:A *674:26 0
34 *1493:A *674:98 0
35 *1544:A *674:14 0.000144583
36 *1569:D *674:20 0
37 *1570:D *674:20 0
38 *1650:B *674:14 0.000112332
39 *1651:C1 *674:14 0
40 *1669:B1 *674:14 0
41 *1738:A *674:22 0.000226655
42 *1738:A *674:26 8.00842e-05
43 *1741:B *674:20 0
44 *1764:CLK *674:43 0
45 *1764:CLK *674:45 0
46 *1940:A *674:26 0
47 *1965:A *674:43 0.000532257
48 *4:38 *674:20 0
49 *4:38 *674:22 0
50 *4:38 *674:98 0
51 *29:8 *674:51 0
52 *30:8 *674:51 0.000608941
53 *70:10 *674:98 0.00023464
54 *180:73 *674:68 0
55 *193:22 *674:113 0
56 *209:32 *674:60 0
57 *292:10 *1797:RESET_B 0
58 *292:10 *674:60 0
59 *299:16 *674:20 0
60 *299:16 *674:22 0
61 *299:16 *674:26 0
62 *303:18 *674:20 0
63 *306:20 *1812:RESET_B 0.000288675
64 *306:20 *674:43 0.000584094
65 *329:25 *674:14 0.000207854
66 *345:16 *674:14 8.00842e-05
67 *347:26 *674:14 0
68 *350:22 *674:20 0
69 *369:10 *674:20 0
70 *452:8 *674:20 0.00151226
71 *524:34 *674:20 0.000237256
72 *527:8 *674:98 0
73 *535:10 *674:20 0.000237505
74 *544:11 *674:20 0
75 *544:106 *674:113 0
76 *546:21 *1797:RESET_B 0
77 *547:15 *674:43 0
78 *558:12 *674:68 0
79 *564:12 *674:113 0.000341621
80 *564:20 *674:26 0
81 *564:22 *674:43 0
82 *612:25 *674:26 0
83 *613:14 *1812:RESET_B 0
84 *636:33 *674:98 0
85 *650:12 *674:14 0
86 *654:142 *674:14 4.77425e-05
87 *658:76 *674:60 0
88 *673:20 *674:14 0
89 *673:43 *674:14 0
*RES
1 *1905:X *674:14 47.4572 
2 *674:14 *674:20 44.0917 
3 *674:20 *674:22 3.5638 
4 *674:22 *674:26 25.9093 
5 *674:26 *1812:RESET_B 41.339 
6 *674:26 *674:43 27.416 
7 *674:43 *674:45 2.266 
8 *674:45 *674:51 46.0358 
9 *674:51 *1795:RESET_B 20 
10 *674:51 *674:60 5.9225 
11 *674:60 *674:68 44.5011 
12 *674:68 *1796:RESET_B 20 
13 *674:60 *1797:RESET_B 22.9149 
14 *674:45 *1764:RESET_B 20 
15 *674:43 *1763:RESET_B 20 
16 *674:22 *674:98 41.8437 
17 *674:98 *1809:RESET_B 20 
18 *674:20 *674:113 43.7389 
19 *674:113 *1825:RESET_B 20 
*END

*D_NET *675 0.0140561
*CONN
*I *1810:RESET_B I *D sg13cmos5l_dfrbpq_1
*I *1803:RESET_B I *D sg13cmos5l_dfrbpq_1
*I *1801:RESET_B I *D sg13cmos5l_dfrbpq_1
*I *1806:RESET_B I *D sg13cmos5l_dfrbpq_1
*I *1906:X O *D sg13cmos5l_buf_1
*CAP
1 *1810:RESET_B 0.000174867
2 *1803:RESET_B 0.000104565
3 *1801:RESET_B 0
4 *1806:RESET_B 0
5 *1906:X 5.40062e-05
6 *675:40 0.000542722
7 *675:33 0
8 *675:24 0.000423304
9 *675:18 0.000891364
10 *675:14 0.00257159
11 *675:8 0.00189425
12 *1810:RESET_B *765:13 0
13 *675:8 *677:53 8.01189e-05
14 *675:14 *683:8 0.000556627
15 *675:14 *765:13 0
16 *675:40 *683:8 0.000606546
17 *675:40 *765:13 0
18 *1501:A *1810:RESET_B 0.00012816
19 *1501:A *675:40 0.000128353
20 *55:10 *675:40 0
21 *78:10 *675:14 0
22 *86:8 *675:14 0
23 *163:66 *675:18 0
24 *163:66 *675:24 0
25 *163:74 *675:24 0
26 *180:73 *1803:RESET_B 0.000176482
27 *258:37 *675:14 0
28 *293:14 *1810:RESET_B 0.0001122
29 *303:26 *675:14 0
30 *305:10 *675:40 0.000234224
31 *338:10 *675:14 0.000829184
32 *364:53 *675:14 0
33 *367:10 *675:14 0.0014673
34 *409:12 *675:14 0
35 *417:14 *675:14 0.00120057
36 *547:15 *675:14 0
37 *573:65 *675:8 0
38 *573:65 *675:14 0
39 *655:26 *675:14 0
40 *655:126 *675:14 0.00119835
41 *656:64 *675:18 0.000377255
42 *658:49 *1810:RESET_B 0.000159344
43 *658:76 *1803:RESET_B 0.000144697
44 *660:62 *675:14 0
45 *660:73 *675:14 0
46 *660:75 *675:14 0
47 *660:77 *675:14 0
*RES
1 *1906:X *675:8 40.5356 
2 *675:8 *675:14 24.0093 
3 *675:14 *675:18 25.0779 
4 *675:18 *675:24 43.9964 
5 *675:24 *1806:RESET_B 20 
6 *675:18 *675:33 40 
7 *675:33 *1801:RESET_B 20 
8 *675:14 *675:40 3.811 
9 *675:40 *1803:RESET_B 41.1845 
10 *675:40 *1810:RESET_B 42.0909 
*END

*D_NET *676 0.0143868
*CONN
*I *1831:RESET_B I *D sg13cmos5l_dfrbpq_1
*I *1826:RESET_B I *D sg13cmos5l_dfrbpq_1
*I *1794:RESET_B I *D sg13cmos5l_dfrbpq_1
*I *1828:RESET_B I *D sg13cmos5l_dfrbpq_1
*I *1789:RESET_B I *D sg13cmos5l_dfrbpq_1
*I *1830:RESET_B I *D sg13cmos5l_dfrbpq_1
*I *1790:RESET_B I *D sg13cmos5l_dfrbpq_1
*I *1827:RESET_B I *D sg13cmos5l_dfrbpq_1
*I *1907:X O *D sg13cmos5l_buf_1
*CAP
1 *1831:RESET_B 0.000751335
2 *1826:RESET_B 0
3 *1794:RESET_B 0
4 *1828:RESET_B 4.93952e-05
5 *1789:RESET_B 0.000265679
6 *1830:RESET_B 0
7 *1790:RESET_B 0
8 *1827:RESET_B 0.000120954
9 *1907:X 0.000992981
10 *676:73 0.000310705
11 *676:67 0.000645508
12 *676:65 0.00120665
13 *676:52 0.000276716
14 *676:38 0.000928487
15 *676:31 0.000992575
16 *676:25 0.000800446
17 *676:12 0.000484827
18 *676:10 0.000992981
19 *1831:RESET_B *1760:A1 0
20 *1831:RESET_B *682:14 0
21 *1831:RESET_B *754:6 0
22 *676:10 *1734:B 0
23 *676:10 *1754:A 0
24 *676:10 *677:24 0
25 *676:10 *677:30 0
26 *676:25 *713:10 0.000181608
27 *676:38 *754:50 0
28 *676:52 *713:10 0.000608768
29 *676:65 *713:10 0.000234726
30 *676:67 *682:14 0
31 *676:67 *777:6 0
32 *676:73 *677:81 0.000554579
33 *676:73 *682:20 0.000819825
34 *676:73 *776:48 0
35 *1384:A *1831:RESET_B 0.000208747
36 *1506:A *1789:RESET_B 0
37 *1506:A *676:38 0
38 *1515:A_N *676:38 0
39 *1517:A *1831:RESET_B 4.78192e-05
40 *1744:A2 *1827:RESET_B 0
41 *1744:A2 *676:25 0
42 *1747:A *676:10 0
43 *1789:D *1789:RESET_B 0
44 *1790:D *676:31 0
45 *1828:CLK *1828:RESET_B 1.5412e-05
46 *1828:CLK *676:31 0
47 *1828:CLK *676:38 0
48 *1849:A *1831:RESET_B 0
49 *1968:A *1831:RESET_B 0
50 *1996:A *676:25 0
51 *3:15 *1831:RESET_B 0
52 *24:16 *676:25 0
53 *50:20 *676:73 0
54 *135:52 *676:25 0.000448428
55 *135:52 *676:52 0.000587086
56 *135:52 *676:65 0.000425086
57 *193:12 *676:67 0.000404362
58 *283:40 *1831:RESET_B 8.03256e-05
59 *283:51 *1831:RESET_B 0.000290104
60 *287:29 *676:25 0.000274496
61 *287:31 *1827:RESET_B 0
62 *287:31 *676:25 0
63 *299:16 *1828:RESET_B 8.00954e-05
64 *299:22 *676:65 0
65 *300:24 *676:25 0
66 *300:24 *676:31 0.000306063
67 *308:26 *1789:RESET_B 0
68 *309:12 *676:38 0
69 *521:26 *676:10 0
70 *524:47 *676:10 0
71 *531:8 *676:10 0
72 *550:37 *1831:RESET_B 0
73 *550:37 *676:65 0
74 *566:43 *676:38 0
75 *665:69 *1831:RESET_B 0
*RES
1 *1907:X *676:10 49.2906 
2 *676:10 *676:12 20 
3 *676:12 *1827:RESET_B 21.1845 
4 *676:12 *676:25 24.5629 
5 *676:25 *676:31 23.296 
6 *676:31 *1790:RESET_B 20 
7 *676:31 *676:38 5.7268 
8 *676:38 *1830:RESET_B 20 
9 *676:38 *1789:RESET_B 22.266 
10 *676:25 *676:52 2.8222 
11 *676:52 *1828:RESET_B 40.5356 
12 *676:52 *676:65 22.0806 
13 *676:65 *676:67 3.5638 
14 *676:67 *676:73 44.7998 
15 *676:73 *1794:RESET_B 20 
16 *676:67 *1826:RESET_B 20 
17 *676:65 *1831:RESET_B 27.3954 
*END

*D_NET *677 0.0236505
*CONN
*I *1788:RESET_B I *D sg13cmos5l_dfrbpq_1
*I *1808:RESET_B I *D sg13cmos5l_dfrbpq_1
*I *1807:RESET_B I *D sg13cmos5l_dfrbpq_1
*I *1907:A I *D sg13cmos5l_buf_1
*I *1905:A I *D sg13cmos5l_buf_1
*I *1906:A I *D sg13cmos5l_buf_1
*I *1908:X O *D sg13cmos5l_buf_1
*CAP
1 *1788:RESET_B 0.000663483
2 *1808:RESET_B 0.000428819
3 *1807:RESET_B 0
4 *1907:A 0
5 *1905:A 0
6 *1906:A 3.3036e-05
7 *1908:X 0.00123852
8 *677:111 0.00191016
9 *677:87 0.000686551
10 *677:81 0.00252555
11 *677:68 0.000259569
12 *677:53 0.00122283
13 *677:36 0.00127957
14 *677:30 0.00112276
15 *677:24 0.0021019
16 *677:22 0.00176441
17 *677:20 0.00075334
18 *677:14 0.00199186
19 *1788:RESET_B *704:12 0
20 *1788:RESET_B *726:10 0
21 *677:14 *1987:A 0
22 *677:14 *689:14 7.90195e-05
23 *677:24 *756:10 0
24 *677:24 *757:14 0.000427844
25 *677:30 *1754:A 0
26 *677:30 *695:20 0
27 *677:30 *695:26 0
28 *677:30 *757:14 0.000719897
29 *677:68 *1734:B 0.000182872
30 *677:68 *1754:A 0.000182448
31 *677:81 *1995:A 0
32 *677:81 *682:20 0
33 *677:81 *724:10 0
34 *677:81 *756:10 0
35 *677:81 *776:48 0
36 *677:87 *776:48 0
37 *1538:A1 *677:53 0
38 *1547:A *677:30 0
39 *1590:A2 *677:53 0.000265822
40 *1747:A *677:68 0
41 *1809:D *677:14 0
42 *1941:A *677:14 0
43 *1998:A *1788:RESET_B 0
44 *4:38 *677:14 0
45 *40:10 *677:14 0.000265119
46 *53:16 *1808:RESET_B 0.000566289
47 *80:8 *1906:A 0
48 *80:8 *677:53 0
49 *80:18 *677:53 0
50 *180:24 *677:30 0
51 *203:41 *677:81 0
52 *203:41 *677:87 0
53 *303:18 *677:20 0
54 *303:26 *677:14 0
55 *308:16 *1788:RESET_B 0.000369903
56 *325:14 *677:30 0.000288405
57 *333:16 *677:53 0
58 *337:28 *677:14 4.78524e-05
59 *338:71 *677:53 5.69428e-05
60 *338:82 *677:30 0
61 *341:26 *677:53 0
62 *350:8 *677:30 0
63 *365:96 *677:53 0
64 *373:24 *677:30 0
65 *392:35 *677:53 0.000608487
66 *416:34 *677:36 0.000130618
67 *447:16 *677:53 0
68 *521:26 *677:68 0.000241467
69 *523:10 *677:24 0.000235656
70 *524:8 *677:68 0
71 *531:8 *677:24 0
72 *531:8 *677:81 0
73 *539:8 *677:68 0.00023548
74 *544:88 *677:30 0
75 *550:15 *1808:RESET_B 0
76 *573:37 *677:53 0
77 *573:48 *677:53 0
78 *573:65 *677:36 0.000129273
79 *595:59 *677:111 0
80 *649:87 *677:30 0
81 *655:42 *677:14 0
82 *660:118 *677:14 0
83 *672:16 *677:53 0
84 *675:8 *677:53 8.01189e-05
85 *676:10 *677:24 0
86 *676:10 *677:30 0
87 *676:73 *677:81 0.000554579
*RES
1 *1908:X *677:14 31.639 
2 *677:14 *677:20 48.755 
3 *677:20 *677:22 20 
4 *677:22 *677:24 8.5078 
5 *677:24 *677:30 31.8227 
6 *677:30 *677:36 40.5974 
7 *677:36 *1906:A 20.3193 
8 *677:36 *677:53 31.4433 
9 *677:53 *1905:A 40 
10 *677:24 *677:68 43.4196 
11 *677:68 *1907:A 40 
12 *677:22 *677:81 30.5575 
13 *677:81 *677:87 42.3278 
14 *677:87 *1807:RESET_B 20 
15 *677:87 *1808:RESET_B 24.6968 
16 *677:81 *677:111 49.7541 
17 *677:111 *1788:RESET_B 26.2933 
*END

*D_NET *678 0.0167289
*CONN
*I *1800:RESET_B I *D sg13cmos5l_dfrbpq_1
*I *1777:RESET_B I *D sg13cmos5l_dfrbpq_1
*I *1778:RESET_B I *D sg13cmos5l_dfrbpq_1
*I *1791:RESET_B I *D sg13cmos5l_dfrbpq_1
*I *1804:RESET_B I *D sg13cmos5l_dfrbpq_1
*I *1805:RESET_B I *D sg13cmos5l_dfrbpq_1
*I *1798:RESET_B I *D sg13cmos5l_dfrbpq_1
*I *1799:RESET_B I *D sg13cmos5l_dfrbpq_1
*I *1909:X O *D sg13cmos5l_buf_1
*CAP
1 *1800:RESET_B 9.2573e-05
2 *1777:RESET_B 0.000411516
3 *1778:RESET_B 0.000331005
4 *1791:RESET_B 0.000149206
5 *1804:RESET_B 0.000318422
6 *1805:RESET_B 0.000423795
7 *1798:RESET_B 0.000167791
8 *1799:RESET_B 0.000114877
9 *1909:X 0
10 *678:69 0.00146695
11 *678:53 0.00109967
12 *678:49 0.00212053
13 *678:41 0.00106492
14 *678:12 0.000658231
15 *678:8 0.000893992
16 *678:4 0.000302925
17 *1777:RESET_B *728:10 0.000342659
18 *1778:RESET_B *1779:RESET_B 0.00046566
19 *1798:RESET_B *773:18 0.000144743
20 *678:8 *774:8 0.000106392
21 *678:8 *774:25 0.000394652
22 *678:12 *771:38 0.000287256
23 *678:12 *774:8 7.57164e-05
24 *678:49 *763:8 0.000134653
25 *678:49 *763:18 8.00842e-05
26 *678:69 *686:10 0.000342772
27 *678:69 *728:10 0.000235153
28 *1419:B *678:49 0
29 *1464:B2 *678:49 0
30 *1486:A1 *1798:RESET_B 0
31 *1490:B *1805:RESET_B 0
32 *1792:CLK *678:49 0
33 *25:16 *678:69 0
34 *90:12 *678:69 0
35 *90:37 *678:69 0
36 *137:23 *1778:RESET_B 0
37 *137:27 *1778:RESET_B 8.00842e-05
38 *161:10 *1800:RESET_B 0
39 *161:10 *678:49 0
40 *162:35 *1791:RESET_B 0
41 *162:35 *1804:RESET_B 0
42 *172:54 *1791:RESET_B 0
43 *196:24 *678:49 0
44 *202:85 *1804:RESET_B 0
45 *202:85 *678:53 0
46 *202:95 *1805:RESET_B 0
47 *298:18 *1805:RESET_B 0
48 *543:10 *678:53 0
49 *552:12 *678:12 0
50 *558:8 *1804:RESET_B 0
51 *558:23 *678:41 0
52 *558:23 *678:49 0
53 *565:12 *678:53 0
54 *565:18 *678:53 0
55 *565:34 *678:49 0
56 *565:47 *678:69 0.00193863
57 *565:60 *1777:RESET_B 0.000426955
58 *565:60 *678:69 0.000128248
59 *581:8 *678:53 0
60 *623:8 *1777:RESET_B 0.00014461
61 *626:12 *678:53 0
62 *641:28 *1800:RESET_B 0
63 *641:28 *678:49 0
64 *658:95 *678:8 0.000500214
65 *658:95 *678:12 0.00113945
66 *668:30 *1777:RESET_B 0.00014461
*RES
1 *1909:X *678:4 20 
2 *678:4 *678:8 22.3278 
3 *678:8 *678:12 25.2942 
4 *678:12 *1799:RESET_B 21.1021 
5 *678:12 *1798:RESET_B 21.6171 
6 *678:8 *1805:RESET_B 42.8617 
7 *678:4 *678:41 1.8334 
8 *678:41 *678:49 27.0761 
9 *678:49 *678:53 25.5414 
10 *678:53 *1804:RESET_B 22.6986 
11 *678:53 *1791:RESET_B 21.4008 
12 *678:49 *678:69 9.991 
13 *678:69 *1778:RESET_B 43.1312 
14 *678:69 *1777:RESET_B 45.2736 
15 *678:41 *1800:RESET_B 21.1639 
*END

*D_NET *679 0.00776775
*CONN
*I *1779:RESET_B I *D sg13cmos5l_dfrbpq_1
*I *1793:RESET_B I *D sg13cmos5l_dfrbpq_1
*I *1802:RESET_B I *D sg13cmos5l_dfrbpq_1
*I *1792:RESET_B I *D sg13cmos5l_dfrbpq_1
*I *1910:X O *D sg13cmos5l_buf_1
*CAP
1 *1779:RESET_B 0.000879621
2 *1793:RESET_B 0
3 *1802:RESET_B 0.000182533
4 *1792:RESET_B 0.000725369
5 *1910:X 0.000698373
6 *679:29 0.000182533
7 *679:16 0.000973444
8 *679:12 0.00182607
9 *1792:RESET_B *687:10 0.000234726
10 *1792:RESET_B *762:14 0
11 *679:12 *1802:CLK 0
12 *679:16 *687:10 0.000181144
13 *679:16 *762:12 0
14 *1319:B1 *1779:RESET_B 0
15 *1319:A2 *1779:RESET_B 0
16 *1383:A *679:12 0
17 *1383:B *1802:RESET_B 0.000339043
18 *1489:A1 *1792:RESET_B 1.54008e-05
19 *1778:RESET_B *1779:RESET_B 0.00046566
20 *1793:CLK *1779:RESET_B 0.000355055
21 *1793:CLK *679:12 1.54008e-05
22 *1873:A *679:12 0.000144894
23 *25:24 *1792:RESET_B 0
24 *137:8 *1779:RESET_B 0
25 *137:8 *679:12 0
26 *137:27 *1779:RESET_B 0
27 *161:23 *1792:RESET_B 8.02595e-05
28 *182:40 *1802:RESET_B 0.000339043
29 *188:62 *679:16 0.000129186
30 *262:10 *679:12 0
31 *598:14 *1792:RESET_B 0
32 *598:14 *679:16 0
33 *641:28 *1792:RESET_B 0
34 *651:22 *679:12 0
*RES
1 *1910:X *679:12 26.3139 
2 *679:12 *679:16 22.575 
3 *679:16 *1792:RESET_B 46.6332 
4 *679:16 *679:29 20 
5 *679:29 *1802:RESET_B 22.266 
6 *679:29 *1793:RESET_B 20 
7 *679:12 *1779:RESET_B 28.24 
*END

*D_NET *680 0.0199226
*CONN
*I *1909:A I *D sg13cmos5l_buf_1
*I *1784:RESET_B I *D sg13cmos5l_dfrbpq_1
*I *1785:RESET_B I *D sg13cmos5l_dfrbpq_1
*I *1783:RESET_B I *D sg13cmos5l_dfrbpq_1
*I *1782:RESET_B I *D sg13cmos5l_dfrbpq_1
*I *1781:RESET_B I *D sg13cmos5l_dfrbpq_1
*I *1780:RESET_B I *D sg13cmos5l_dfrbpq_1
*I *1910:A I *D sg13cmos5l_buf_1
*I *1911:X O *D sg13cmos5l_buf_1
*CAP
1 *1909:A 0
2 *1784:RESET_B 0.000201171
3 *1785:RESET_B 0.000411565
4 *1783:RESET_B 0
5 *1782:RESET_B 0
6 *1781:RESET_B 0
7 *1780:RESET_B 0
8 *1910:A 0
9 *1911:X 0
10 *680:121 0.000944435
11 *680:85 0.00108329
12 *680:76 0.000737341
13 *680:67 0.000208653
14 *680:61 0.000882702
15 *680:50 0.000814458
16 *680:43 0.0018544
17 *680:27 0.00225009
18 *680:10 0.00101436
19 *680:4 0.00115592
20 *1785:RESET_B *739:41 0.000395396
21 *680:10 *774:25 0.000448514
22 *680:27 *774:25 0.000335916
23 *680:67 *1954:A 0.000606695
24 *680:67 *737:14 0.000872356
25 *680:121 *1802:CLK 0
26 *680:121 *773:42 0
27 *680:121 *774:25 0.00018128
28 *1315:A *680:27 0.000629414
29 *1316:B *680:43 0.00030581
30 *1321:A1 *680:43 4.77425e-05
31 *1321:B1 *680:43 8.00842e-05
32 *1323:A *680:43 4.7885e-05
33 *1323:B *680:43 8.02267e-05
34 *1323:C *680:43 0
35 *1325:A *680:50 0.000209374
36 *1326:B *680:50 0
37 *1328:A1 *680:61 0
38 *1331:B *680:76 0
39 *1389:B *680:43 0
40 *1780:D *680:43 0
41 *1783:D *680:85 0
42 *1784:CLK *1785:RESET_B 0
43 *1994:A *680:85 0.000435117
44 *33:10 *680:10 0
45 *33:10 *680:27 0
46 *34:8 *680:121 0.000554078
47 *89:29 *680:43 0.000642967
48 *135:100 *680:61 4.78524e-05
49 *137:8 *680:43 0.00017571
50 *137:23 *680:43 0.000240668
51 *137:27 *680:43 0
52 *141:23 *680:50 0
53 *143:8 *680:50 0
54 *143:16 *680:50 0.000241716
55 *143:25 *680:61 0
56 *144:12 *680:76 0
57 *145:10 *680:61 0.000209725
58 *145:10 *680:67 0
59 *145:10 *680:76 9.7047e-05
60 *146:10 *1784:RESET_B 0.000341534
61 *146:10 *1785:RESET_B 7.51285e-05
62 *567:43 *1784:RESET_B 0.000112426
63 *598:14 *680:27 0.000234224
64 *639:75 *680:43 0
65 *639:86 *680:43 0
66 *639:86 *680:50 0
67 *639:93 *680:61 0
68 *639:93 *680:76 0
69 *639:93 *680:85 0
70 *651:22 *680:27 0.00026525
71 *651:22 *680:43 0
72 *651:28 *1784:RESET_B 0.000112426
73 *651:28 *680:85 0
74 *658:95 *680:121 0.00012816
75 *668:64 *680:43 0.000209505
*RES
1 *1911:X *680:4 20 
2 *680:4 *680:10 22.3999 
3 *680:10 *1910:A 40 
4 *680:10 *680:27 48.5902 
5 *680:27 *680:43 34.8073 
6 *680:43 *1780:RESET_B 20 
7 *680:43 *680:50 3.9964 
8 *680:50 *1781:RESET_B 20 
9 *680:50 *680:61 4.4496 
10 *680:61 *680:67 44.0582 
11 *680:67 *1782:RESET_B 20 
12 *680:61 *680:76 2.6162 
13 *680:76 *1783:RESET_B 20 
14 *680:76 *680:85 23.3517 
15 *680:85 *1785:RESET_B 44.0067 
16 *680:85 *1784:RESET_B 42.3381 
17 *680:4 *680:121 49.2597 
18 *680:121 *1909:A 20 
*END

*D_NET *681 0.0355215
*CONN
*I *1908:A I *D sg13cmos5l_buf_1
*I *1911:A I *D sg13cmos5l_buf_1
*I *1786:RESET_B I *D sg13cmos5l_dfrbpq_1
*I *1787:RESET_B I *D sg13cmos5l_dfrbpq_1
*I *1912:X O *D sg13cmos5l_buf_1
*CAP
1 *1908:A 4.83958e-05
2 *1911:A 0
3 *1786:RESET_B 7.79167e-05
4 *1787:RESET_B 0.000312303
5 *1912:X 0.000435646
6 *681:52 0.000872777
7 *681:24 0.000390219
8 *681:22 0.00330925
9 *681:20 0.00330925
10 *681:18 0.00304236
11 *681:10 0.00370786
12 *681:8 0.00192553
13 *681:10 *716:8 0
14 *681:18 *1250:A 0
15 *681:18 *716:8 0
16 *1279:B1 *681:8 0
17 *1343:C *1787:RESET_B 0.00130669
18 *1383:A *681:52 0
19 *1487:B *681:52 0
20 *1766:CLK *681:10 0.000982154
21 *1833:A *681:52 0
22 *4:10 *681:10 0
23 *4:10 *681:18 0
24 *4:38 *1908:A 0
25 *6:9 *681:10 0
26 *7:13 *681:52 0
27 *9:9 *681:18 0
28 *9:9 *681:52 0
29 *23:16 *681:22 0.000967104
30 *30:8 *681:18 0.000608941
31 *33:10 *681:52 0
32 *151:34 *1786:RESET_B 0.000107087
33 *151:34 *1787:RESET_B 7.62277e-05
34 *153:16 *681:22 0
35 *161:29 *681:22 0
36 *161:35 *681:22 0
37 *161:43 *681:22 0
38 *162:35 *681:18 0.000615072
39 *162:35 *681:52 0.00228228
40 *175:14 *681:22 0
41 *221:27 *1786:RESET_B 0.000127878
42 *221:27 *1787:RESET_B 0.00135337
43 *221:33 *681:22 0
44 *256:24 *681:22 0
45 *270:35 *681:22 0
46 *281:20 *681:22 0.000376334
47 *293:18 *681:18 0
48 *433:18 *681:8 0.000110829
49 *440:16 *681:8 0
50 *561:20 *681:10 0.00197463
51 *561:22 *681:10 0.000641362
52 *561:49 *681:10 0.001977
53 *561:62 *681:10 5.34469e-05
54 *572:8 *681:10 0
55 *586:36 *681:10 0.000664061
56 *626:45 *681:22 0
57 *637:66 *681:22 0
58 *655:42 *681:10 0
59 *655:58 *681:10 0.00386554
60 *656:18 *681:22 0
61 *656:108 *681:22 0
62 *674:51 *681:18 0
*RES
1 *1912:X *681:8 43.7801 
2 *681:8 *681:10 29.767 
3 *681:10 *681:18 26.059 
4 *681:18 *681:20 20 
5 *681:20 *681:22 28.3375 
6 *681:22 *681:24 20 
7 *681:24 *1787:RESET_B 46.8186 
8 *681:24 *1786:RESET_B 41.133 
9 *681:18 *681:52 32.9368 
10 *681:52 *1911:A 20 
11 *681:10 *1908:A 40.5356 
*END

*D_NET *682 0.0121369
*CONN
*I *1794:D I *D sg13cmos5l_dfrbpq_1
*I *1245:Y O *D sg13cmos5l_inv_1
*CAP
1 *1794:D 0
2 *1245:Y 9.31611e-05
3 *682:20 0.000330012
4 *682:14 0.00240182
5 *682:8 0.00216497
6 *682:14 *777:6 0
7 *682:14 *777:15 0
8 *682:20 *724:10 0.000555408
9 *1757:B *682:8 0
10 *1757:B *682:14 0
11 *1826:CLK *682:14 0
12 *1828:CLK *682:14 0
13 *1831:RESET_B *682:14 0
14 *3:9 *682:14 0.00152018
15 *3:15 *682:14 0.00140228
16 *50:14 *682:20 0
17 *50:20 *682:20 0.000341707
18 *299:16 *682:14 0.000695407
19 *308:37 *682:14 0
20 *542:12 *682:14 0.000984099
21 *550:37 *682:14 0
22 *566:35 *682:14 0
23 *566:41 *682:14 0
24 *566:43 *682:14 0
25 *586:86 *682:14 0.00082803
26 *625:14 *682:8 0
27 *676:67 *682:14 0
28 *676:73 *682:20 0.000819825
29 *677:81 *682:20 0
*RES
1 *1245:Y *682:8 40.7519 
2 *682:8 *682:14 44.7062 
3 *682:14 *682:20 45.2942 
4 *682:20 *1794:D 20 
*END

*D_NET *683 0.00269754
*CONN
*I *1803:D I *D sg13cmos5l_dfrbpq_1
*I *1246:Y O *D sg13cmos5l_inv_1
*CAP
1 *1803:D 0.000150038
2 *1246:Y 0.000356361
3 *683:8 0.000506399
4 *55:10 *683:8 0.000499383
5 *258:37 *683:8 2.21839e-05
6 *305:16 *1803:D 0
7 *546:21 *1803:D 0
8 *675:14 *683:8 0.000556627
9 *675:40 *683:8 0.000606546
*RES
1 *1246:Y *683:8 45.2942 
2 *683:8 *1803:D 41.1845 
*END

*D_NET *684 0.0177397
*CONN
*I *1598:B I *D sg13cmos5l_and3_1
*I *1586:B1 I *D sg13cmos5l_a21o_1
*I *1562:A I *D sg13cmos5l_nand2_1
*I *1723:A I *D sg13cmos5l_nand2_1
*I *1718:A I *D sg13cmos5l_nor3_1
*I *1706:C1 I *D sg13cmos5l_a221oi_1
*I *1699:A1 I *D sg13cmos5l_o21ai_1
*I *1687:C1 I *D sg13cmos5l_a221oi_1
*I *1913:X O *D sg13cmos5l_buf_1
*CAP
1 *1598:B 0
2 *1586:B1 0
3 *1562:A 5.63896e-05
4 *1723:A 0
5 *1718:A 0.000394127
6 *1706:C1 3.56841e-05
7 *1699:A1 5.54054e-05
8 *1687:C1 0
9 *1913:X 7.2212e-05
10 *684:139 0.000355998
11 *684:124 0.000536528
12 *684:104 0.000586555
13 *684:58 0.000647845
14 *684:42 0.000882703
15 *684:40 0.000442568
16 *684:36 0.000969089
17 *684:30 0.00173209
18 *684:24 0.00129864
19 *684:20 0.00116662
20 *684:12 0.000975114
21 *684:139 *706:10 7.93152e-05
22 *1509:B *684:139 0
23 *1579:C *684:58 8.01064e-05
24 *1580:B *684:36 0
25 *1581:B *1718:A 1.54008e-05
26 *1582:B *684:40 0
27 *1586:A1 *684:12 0
28 *1586:A1 *684:139 1.54556e-05
29 *1598:C *684:139 0.000463946
30 *1599:C *684:139 0
31 *1606:B1 *684:30 0
32 *1687:B2 *684:58 1.54008e-05
33 *1687:A1 *684:58 0
34 *1689:A2 *684:58 0
35 *1698:B1 *684:58 0
36 *1698:A1 *684:58 0.000127838
37 *1698:A2 *684:58 0
38 *1699:A2 *1699:A1 0.000112585
39 *1699:A2 *684:58 0.000145256
40 *1706:B1 *1718:A 4.74263e-05
41 *1706:B1 *684:40 0.000207854
42 *1711:A1 *684:42 8.02379e-05
43 *1711:A1 *684:58 7.53965e-05
44 *1711:A2 *1706:C1 6.46834e-05
45 *1711:A2 *684:42 0.00011235
46 *1713:A *684:104 0.00017634
47 *1714:B1 *1718:A 0
48 *1716:A2 *1718:A 0.000119683
49 *1718:B *1718:A 0
50 *1724:A1 *684:104 0
51 *1725:B1 *684:20 0.000234628
52 *1875:A *684:124 0
53 *79:10 *684:20 0.000372986
54 *79:10 *684:124 7.65602e-05
55 *323:23 *684:24 0.00018304
56 *355:8 *684:24 0
57 *355:8 *684:30 0
58 *362:29 *684:12 0
59 *382:28 *684:58 0
60 *382:34 *684:42 0
61 *382:34 *684:58 0
62 *383:8 *684:36 0
63 *408:22 *1562:A 0.000104321
64 *410:56 *1706:C1 1.54008e-05
65 *410:56 *684:40 4.77425e-05
66 *411:35 *684:58 7.51285e-05
67 *411:43 *684:58 0.000241259
68 *477:46 *684:42 0
69 *477:63 *684:30 0
70 *491:10 *684:58 0.000111878
71 *495:10 *684:104 0.000106392
72 *495:24 *684:36 0.00034265
73 *495:24 *684:104 0.000181827
74 *498:12 *1718:A 0
75 *498:12 *684:36 7.51285e-05
76 *508:14 *684:30 8.26303e-05
77 *508:14 *684:104 0.000359209
78 *570:22 *684:104 0
79 *586:128 *684:58 0.00012816
80 *597:10 *684:30 0.000859433
81 *597:12 *684:30 0.000160033
82 *597:16 *684:30 2.25909e-05
83 *619:25 *1562:A 0.000104189
84 *642:26 *684:24 0
85 *642:36 *684:24 0.000607713
86 *642:36 *684:30 0.000288643
87 *643:20 *684:20 0
88 *644:77 *684:36 0.00018144
89 *644:87 *684:36 0
90 *645:10 *684:36 0.000395595
91 *645:87 *684:30 0
92 *646:8 *684:30 0
93 *646:26 *684:30 0.000234311
*RES
1 *1913:X *684:12 40.7725 
2 *684:12 *684:20 48.1164 
3 *684:20 *684:24 5.3354 
4 *684:24 *684:30 30.0013 
5 *684:30 *684:36 44.3054 
6 *684:36 *684:40 2.4308 
7 *684:40 *684:42 2.0497 
8 *684:42 *684:58 47.2615 
9 *684:58 *1687:C1 20 
10 *684:42 *1699:A1 21.1021 
11 *684:40 *1706:C1 20.5356 
12 *684:36 *1718:A 23.8522 
13 *684:30 *684:104 45.5644 
14 *684:104 *1723:A 20 
15 *684:24 *1562:A 40.6978 
16 *684:12 *684:124 21.6583 
17 *684:124 *1586:B1 20 
18 *684:124 *684:139 43.708 
19 *684:139 *1598:B 20 
*END

*D_NET *685 0.00146355
*CONN
*I *1797:D I *D sg13cmos5l_dfrbpq_1
*I *1247:Y O *D sg13cmos5l_inv_1
*CAP
1 *1797:D 5.06458e-05
2 *1247:Y 0.000363065
3 *685:8 0.000413711
4 *292:10 *1797:D 8.00842e-05
5 *554:10 *685:8 0.000556045
6 *655:134 *685:8 0
*RES
1 *1247:Y *685:8 43.5638 
2 *685:8 *1797:D 40.5356 
*END

*D_NET *686 0.00110323
*CONN
*I *1792:D I *D sg13cmos5l_dfrbpq_1
*I *1961:X O *D sg13cmos5l_dlygate4sd3_1
*CAP
1 *1792:D 0.000160618
2 *1961:X 0.000179523
3 *686:10 0.000340141
4 *25:16 *686:10 0
5 *626:12 *686:10 0
6 *641:28 *1792:D 0
7 *641:28 *686:10 8.01789e-05
8 *678:69 *686:10 0.000342772
*RES
1 *1961:X *686:10 42.1218 
2 *686:10 *1792:D 41.1845 
*END

*D_NET *687 0.00351135
*CONN
*I *1314:B I *D sg13cmos5l_nand2b_1
*I *1313:B_N I *D sg13cmos5l_nor2b_1
*I *1793:D I *D sg13cmos5l_dfrbpq_1
*I *1962:X O *D sg13cmos5l_dlygate4sd3_1
*CAP
1 *1314:B 0.000178408
2 *1313:B_N 0.000434158
3 *1793:D 0
4 *1962:X 0.000386836
5 *687:12 0.000434158
6 *687:10 0.000208429
7 *1792:RESET_B *687:10 0.000234726
8 *1962:A *1313:B_N 8.00842e-05
9 *136:25 *1314:B 0
10 *136:25 *687:10 0
11 *190:8 *1314:B 0.000240328
12 *190:8 *687:10 0.000176274
13 *192:20 *1313:B_N 0.000563151
14 *598:14 *687:10 0.000393654
15 *679:16 *687:10 0.000181144
*RES
1 *1962:X *687:10 43.0179 
2 *687:10 *687:12 20 
3 *687:12 *1793:D 20 
4 *687:12 *1313:B_N 24.4805 
5 *1962:X *1314:B 41.6171 
*END

*D_NET *688 0.00563841
*CONN
*I *1243:A I *D sg13cmos5l_inv_1
*I *1492:A I *D sg13cmos5l_nor2_1
*I *1315:B I *D sg13cmos5l_nor2_1
*I *1963:X O *D sg13cmos5l_dlygate4sd3_1
*CAP
1 *1243:A 8.98128e-05
2 *1492:A 0
3 *1315:B 0
4 *1963:X 0.00184912
5 *688:37 0.00111372
6 *688:16 0.000128744
7 *688:10 0.000953957
8 *1317:A *688:37 0
9 *1874:A *688:10 0
10 *11:12 *688:10 0
11 *89:10 *688:37 0
12 *89:29 *688:37 0
13 *135:10 *688:37 0.00012984
14 *136:46 *688:37 0
15 *137:16 *688:37 0
16 *621:12 *688:10 0.000363095
17 *621:12 *688:37 4.75212e-05
18 *639:10 *688:16 0.000447182
19 *639:50 *688:37 0
20 *662:8 *688:16 0
21 *668:10 *688:10 4.73096e-05
22 *668:30 *688:10 0.000468099
23 *668:41 *688:37 0
*RES
1 *1963:X *688:10 27.6941 
2 *688:10 *688:16 42.0806 
3 *688:16 *1315:B 20 
4 *688:10 *1492:A 20 
5 *1963:X *688:37 47.8256 
6 *688:37 *1243:A 40.7236 
*END

*D_NET *689 0.0125053
*CONN
*I *1311:A I *D sg13cmos5l_xor2_1
*I *1260:A I *D sg13cmos5l_nand2_1
*I *1964:X O *D sg13cmos5l_dlygate4sd3_1
*CAP
1 *1311:A 0
2 *1260:A 7.554e-05
3 *1964:X 0.000532736
4 *689:24 0.00149585
5 *689:18 0.00146232
6 *689:14 0.000574745
7 *689:24 *714:18 0
8 *1262:A1 *689:24 0
9 *1262:A2 *689:14 1.56704e-05
10 *1262:A2 *689:18 0
11 *1813:RESET_B *689:24 0.000872118
12 *1813:D *689:24 0
13 *2000:A *1260:A 0.000112426
14 *36:10 *689:14 0.00055542
15 *40:10 *689:14 1.54008e-05
16 *59:14 *689:24 0.00210072
17 *94:12 *689:24 0
18 *95:10 *689:14 0.000450258
19 *312:64 *689:24 7.52158e-05
20 *336:10 *689:14 0.000394151
21 *414:12 *689:18 8.0216e-05
22 *414:12 *689:24 0.000241133
23 *611:10 *689:24 0
24 *611:18 *689:24 0
25 *617:16 *689:24 0.000234311
26 *672:32 *689:24 0.00114302
27 *672:45 *689:24 0.00199507
28 *672:62 *689:24 0
29 *677:14 *689:14 7.90195e-05
*RES
1 *1964:X *689:14 46.9628 
2 *689:14 *689:18 20.5356 
3 *689:18 *689:24 41.7433 
4 *689:24 *1260:A 40.7519 
5 *689:18 *1311:A 20 
*END

*D_NET *690 0.00270936
*CONN
*I *1763:D I *D sg13cmos5l_dfrbpq_1
*I *1965:X O *D sg13cmos5l_dlygate4sd3_1
*CAP
1 *1763:D 0
2 *1965:X 0.000770079
3 *690:10 0.000770079
4 *690:10 *716:8 0
5 *690:10 *766:15 0
6 *1965:A *690:10 0.000395068
7 *564:20 *690:10 0.000208747
8 *564:22 *690:10 0.000565385
9 *674:43 *690:10 0
*RES
1 *1965:X *690:10 48.1473 
2 *690:10 *1763:D 40 
*END

*D_NET *691 0.00189801
*CONN
*I *1757:A I *D sg13cmos5l_nand2_1
*I *1966:X O *D sg13cmos5l_dlygate4sd3_1
*CAP
1 *1757:A 0
2 *1966:X 0.000495919
3 *691:12 0.000495919
4 *691:12 *692:10 0.000122871
5 *691:12 *754:50 0.000554087
6 *1758:A2 *691:12 0
7 *315:14 *691:12 0
8 *625:32 *691:12 0.000229212
9 *655:12 *691:12 0
10 *655:18 *691:12 0
*RES
1 *1966:X *691:12 45.7474 
2 *691:12 *1757:A 40 
*END

*D_NET *692 0.00186537
*CONN
*I *1830:D I *D sg13cmos5l_dfrbpq_1
*I *1967:X O *D sg13cmos5l_dlygate4sd3_1
*CAP
1 *1830:D 0
2 *1967:X 0.000567279
3 *692:10 0.000567279
4 *692:10 *754:50 0
5 *1967:A *692:10 0
6 *308:26 *692:10 0.000607938
7 *315:14 *692:10 0
8 *655:18 *692:10 0
9 *691:12 *692:10 0.000122871
*RES
1 *1967:X *692:10 46.0817 
2 *692:10 *1830:D 40 
*END

*D_NET *693 0.00173805
*CONN
*I *1759:A I *D sg13cmos5l_nand2_1
*I *1968:X O *D sg13cmos5l_dlygate4sd3_1
*CAP
1 *1759:A 7.3076e-05
2 *1968:X 0.000369737
3 *693:10 0.000442813
4 *1506:B *693:10 0.000110829
5 *542:12 *1759:A 8.02105e-05
6 *542:12 *693:10 0.000661386
*RES
1 *1968:X *693:10 43.8213 
2 *693:10 *1759:A 40.6978 
*END

*D_NET *694 0.00185889
*CONN
*I *1831:D I *D sg13cmos5l_dfrbpq_1
*I *1969:X O *D sg13cmos5l_dlygate4sd3_1
*CAP
1 *1831:D 0.00028864
2 *1969:X 0.000283759
3 *694:8 0.000572399
4 *1831:D *1760:A1 0
5 *76:8 *694:8 0.00071409
*RES
1 *1969:X *694:8 43.3166 
2 *694:8 *1831:D 42.1012 
*END

*D_NET *695 0.0278043
*CONN
*I *1913:A I *D sg13cmos5l_buf_1
*I *1610:C1 I *D sg13cmos5l_a221oi_1
*I *1617:C1 I *D sg13cmos5l_a221oi_1
*I *1636:A1 I *D sg13cmos5l_o21ai_1
*I *1675:A1 I *D sg13cmos5l_o21ai_1
*I *1661:C1 I *D sg13cmos5l_a221oi_1
*I *1647:A1 I *D sg13cmos5l_o21ai_1
*I *1624:A1 I *D sg13cmos5l_o21ai_1
*I *1914:X O *D sg13cmos5l_buf_1
*CAP
1 *1913:A 0
2 *1610:C1 5.98626e-05
3 *1617:C1 0
4 *1636:A1 3.34444e-05
5 *1675:A1 0
6 *1661:C1 0
7 *1647:A1 0
8 *1624:A1 0.000256901
9 *1914:X 0.000341643
10 *695:131 1.46359e-05
11 *695:113 0.000415389
12 *695:87 0.000641538
13 *695:74 0.000269426
14 *695:66 0.00145343
15 *695:60 0.00084
16 *695:51 0.000454202
17 *695:43 0.00115182
18 *695:26 0.00281828
19 *695:20 0.00422485
20 *695:14 0.00203448
21 *695:10 0.000620022
22 *1624:A1 *706:101 0
23 *1636:A1 *706:89 4.77425e-05
24 *695:26 *714:18 0
25 *695:43 *699:8 0
26 *695:43 *706:101 0.00113909
27 *695:51 *1279:A1 0.000767523
28 *695:51 *706:114 0
29 *695:87 *706:77 0.000128479
30 *1267:B *695:51 0.000143549
31 *1498:B *695:113 0.000507132
32 *1539:B *695:74 0
33 *1617:B2 *695:113 0.000153006
34 *1622:A2 *1624:A1 0
35 *1647:A2 *695:51 1.54008e-05
36 *1652:A2 *695:43 0
37 *1652:A2 *695:51 0.000182626
38 *1673:A *695:87 0
39 *1914:A *695:10 4.71556e-05
40 *1915:A *695:10 0.00021413
41 *1984:A *695:26 0.00023464
42 *51:25 *695:10 0
43 *60:10 *695:43 0.000341205
44 *79:10 *695:131 7.5032e-05
45 *80:18 *695:26 0
46 *80:24 *695:26 0
47 *80:42 *695:26 0.000555408
48 *80:42 *695:43 0
49 *93:24 *695:26 0
50 *93:24 *695:43 0.0005003
51 *103:10 *695:66 0
52 *180:24 *695:20 0
53 *301:8 *695:113 0.000615568
54 *314:29 *695:10 0.000663122
55 *321:31 *695:131 7.5032e-05
56 *338:90 *695:66 0.000606326
57 *338:90 *695:87 0.000605244
58 *410:28 *695:87 0
59 *410:85 *695:113 0
60 *411:60 *695:66 0.000671822
61 *411:60 *695:87 0.000622507
62 *426:10 *1624:A1 0
63 *427:12 *695:60 0
64 *433:18 *695:51 0.00103187
65 *434:8 *695:66 0.00023616
66 *445:8 *695:51 0
67 *457:8 *695:74 0.000184058
68 *458:10 *695:74 0
69 *526:12 *1610:C1 0
70 *544:31 *695:87 0
71 *561:10 *695:26 0.000395067
72 *573:10 *695:26 0.000395897
73 *585:16 *695:51 0.000448714
74 *596:10 *695:10 0
75 *633:8 *695:74 8.01612e-05
76 *637:29 *695:20 0
77 *637:29 *695:26 0
78 *647:74 *695:20 0
79 *650:46 *695:66 0.000129186
80 *653:60 *695:66 0
81 *654:18 *695:74 0
82 *671:22 *695:43 0.000182218
83 *672:16 *695:26 0.000178985
84 *672:24 *695:26 0
85 *672:126 *695:14 0
86 *672:126 *695:20 0
87 *677:30 *695:20 0
88 *677:30 *695:26 0
*RES
1 *1914:X *695:10 44.3775 
2 *695:10 *695:14 23.1312 
3 *695:14 *695:20 19.1889 
4 *695:20 *695:26 42.1141 
5 *695:26 *1624:A1 42.0497 
6 *695:26 *695:43 27.3233 
7 *695:43 *695:51 47.4984 
8 *695:51 *1647:A1 20 
9 *695:43 *695:60 22.9149 
10 *695:60 *695:66 26.7259 
11 *695:66 *695:74 42.6162 
12 *695:74 *1661:C1 20 
13 *695:66 *695:87 48.0546 
14 *695:87 *1675:A1 20 
15 *695:60 *1636:A1 40.3193 
16 *695:20 *695:113 44.8266 
17 *695:113 *1617:C1 20 
18 *695:113 *1610:C1 20.5974 
19 *695:14 *695:131 40.3502 
20 *695:131 *1913:A 20 
*END

*D_NET *696 0.00420738
*CONN
*I *1342:B1 I *D sg13cmos5l_a21oi_1
*I *1343:A I *D sg13cmos5l_and3_1
*I *1970:X O *D sg13cmos5l_dlygate4sd3_1
*CAP
1 *1342:B1 0.000238053
2 *1343:A 0.000295586
3 *1970:X 5.50167e-05
4 *696:8 0.000588656
5 *1342:B1 *729:23 0.000372884
6 *1343:A *1343:B 7.88655e-05
7 *1343:A *729:23 0.000235065
8 *1343:A *730:27 0.000607523
9 *696:8 *1344:B 1.54008e-05
10 *1342:A2 *1342:B1 0
11 *1343:C *1342:B1 0.000503343
12 *1343:C *1343:A 0.00113758
13 *1786:D *1342:B1 0
14 *637:45 *696:8 7.94055e-05
*RES
1 *1970:X *696:8 40.5356 
2 *696:8 *1343:A 45.5826 
3 *696:8 *1342:B1 43.296 
*END

*D_NET *697 0.00173828
*CONN
*I *1344:B I *D sg13cmos5l_nor3_1
*I *1971:X O *D sg13cmos5l_dlygate4sd3_1
*CAP
1 *1344:B 0.000699085
2 *1971:X 0.000699085
3 *1344:B *729:23 4.77425e-05
4 *1344:B *730:27 4.77425e-05
5 *1413:A2 *1344:B 0
6 *12:18 *1344:B 6.919e-05
7 *155:42 *1344:B 1.54008e-05
8 *637:45 *1344:B 0.00014463
9 *696:8 *1344:B 1.54008e-05
*RES
1 *1971:X *1344:B 46.695 
*END

*D_NET *698 0.00119477
*CONN
*I *1787:D I *D sg13cmos5l_dfrbpq_1
*I *1972:X O *D sg13cmos5l_dlygate4sd3_1
*CAP
1 *1787:D 0.000397388
2 *1972:X 0.000397388
3 *1787:D *1343:B 0
4 *1787:D *1976:A 0.000112426
5 *1787:D *730:12 0.000110829
6 *1971:A *1787:D 0.000176742
7 *221:27 *1787:D 0
*RES
1 *1972:X *1787:D 43.7286 
*END

*D_NET *699 0.00652052
*CONN
*I *1628:A I *D sg13cmos5l_nand2_1
*I *1973:X O *D sg13cmos5l_dlygate4sd3_1
*CAP
1 *1628:A 0
2 *1973:X 0.000177618
3 *699:20 0.000126685
4 *699:12 0.00189088
5 *699:8 0.00194182
6 *699:12 *706:77 0
7 *1549:B *699:20 2.25909e-05
8 *1652:A2 *699:8 0.000820175
9 *93:14 *699:12 0
10 *93:24 *699:8 0.000712976
11 *332:14 *699:12 0
12 *332:24 *699:12 0
13 *340:18 *699:12 0
14 *352:8 *699:20 7.6403e-05
15 *365:75 *699:12 0
16 *420:12 *699:12 0
17 *578:21 *699:20 0
18 *578:27 *699:12 0.00047433
19 *648:110 *699:20 0
20 *649:87 *699:20 0
21 *652:60 *699:12 0.000277037
22 *695:43 *699:8 0
*RES
1 *1973:X *699:8 43.811 
2 *699:8 *699:12 37.1907 
3 *699:12 *699:20 41.4111 
4 *699:20 *1628:A 20 
*END

*D_NET *700 0.00616597
*CONN
*I *1738:B I *D sg13cmos5l_xnor2_1
*I *1732:B_N I *D sg13cmos5l_nor2b_1
*I *1737:A I *D sg13cmos5l_nand2_1
*I *1974:X O *D sg13cmos5l_dlygate4sd3_1
*CAP
1 *1738:B 0.000139804
2 *1732:B_N 0.000386101
3 *1737:A 4.37077e-05
4 *1974:X 0
5 *700:10 0.000943216
6 *700:6 0.000653211
7 *1732:B_N *1732:A 3.8502e-05
8 *1732:B_N *720:14 0.000192454
9 *1737:A *720:14 8.00842e-05
10 *700:10 *755:10 0
11 *1738:A *1738:B 1.54556e-05
12 *1741:B *1738:B 0.000234592
13 *1741:B *700:10 0.000905668
14 *1824:D *1732:B_N 0.000175513
15 *1824:D *1737:A 8.00842e-05
16 *4:38 *1738:B 0
17 *202:67 *700:10 0.0010349
18 *308:74 *700:10 0.000533552
19 *308:76 *700:10 0.000393981
20 *526:12 *1732:B_N 0
21 *619:87 *1732:B_N 0.000315144
22 *636:33 *1738:B 0
23 *636:33 *700:10 0
24 *674:22 *1738:B 0
*RES
1 *1974:X *700:6 40 
2 *700:6 *700:10 28.5078 
3 *700:10 *1737:A 20.5356 
4 *700:10 *1732:B_N 24.2642 
5 *700:6 *1738:B 41.6274 
*END

*D_NET *701 0.000591288
*CONN
*I *1825:D I *D sg13cmos5l_dfrbpq_1
*I *1975:X O *D sg13cmos5l_dlygate4sd3_1
*CAP
1 *1825:D 0.000145747
2 *1975:X 6.13149e-05
3 *701:8 0.000207062
4 *50:14 *1825:D 0.000177164
5 *564:12 *701:8 0
6 *636:33 *701:8 0
*RES
1 *1975:X *701:8 40.5974 
2 *701:8 *1825:D 41.1845 
*END

*D_NET *702 0.0093947
*CONN
*I *1346:A I *D sg13cmos5l_and2_1
*I *1345:A I *D sg13cmos5l_nor2_1
*I *1976:X O *D sg13cmos5l_dlygate4sd3_1
*CAP
1 *1346:A 0.00096532
2 *1345:A 0
3 *1976:X 0.000525122
4 *702:16 0.0010833
5 *702:10 0.00257375
6 *1346:A *703:12 0
7 *1346:A *731:16 0.000724147
8 *1346:A *731:30 4.77425e-05
9 *702:10 *1343:B 0
10 *1343:C *702:10 0
11 *1346:B *1346:A 0
12 *1415:B_N *1346:A 0.000369903
13 *1478:B *1346:A 4.78524e-05
14 *1504:B1 *1346:A 0
15 *1506:A *702:16 0
16 *1952:A *702:16 0
17 *3:9 *702:16 0
18 *155:8 *702:10 4.77425e-05
19 *155:10 *702:10 0
20 *156:14 *702:10 0.00053364
21 *156:14 *702:16 0.00247618
22 *566:27 *1346:A 0
23 *595:59 *1346:A 0
24 *637:41 *702:10 0
25 *637:41 *702:16 0
*RES
1 *1976:X *702:10 45.3663 
2 *702:10 *702:16 32.7205 
3 *702:16 *1345:A 20 
4 *702:10 *1346:A 49.3215 
*END

*D_NET *703 0.00189677
*CONN
*I *1347:B I *D sg13cmos5l_nor3_1
*I *1977:X O *D sg13cmos5l_dlygate4sd3_1
*CAP
1 *1347:B 0.00015408
2 *1977:X 0.000485128
3 *703:12 0.000639208
4 *703:12 *1348:A1 0
5 *1346:A *703:12 0
6 *1348:A2 *703:12 0.00014474
7 *1415:B_N *703:12 0
8 *1978:A *703:12 5.73968e-05
9 *13:8 *1347:B 0.000175815
10 *157:8 *1347:B 1.54008e-05
11 *157:17 *1347:B 0.000225004
12 *566:27 *703:12 0
*RES
1 *1977:X *703:12 44.017 
2 *703:12 *1347:B 41.6171 
*END

*D_NET *704 0.00210757
*CONN
*I *1788:D I *D sg13cmos5l_dfrbpq_1
*I *1978:X O *D sg13cmos5l_dlygate4sd3_1
*CAP
1 *1788:D 0
2 *1978:X 0.000530872
3 *704:12 0.000530872
4 *704:12 *725:8 4.77425e-05
5 *704:12 *731:12 0
6 *1346:B *704:12 0
7 *1788:RESET_B *704:12 0
8 *1998:A *704:12 0
9 *157:17 *704:12 4.76053e-05
10 *159:8 *704:12 0.000395067
11 *566:35 *704:12 0.000555408
*RES
1 *1978:X *704:12 46.0564 
2 *704:12 *1788:D 40 
*END

*D_NET *705 0.00291079
*CONN
*I *1746:B1 I *D sg13cmos5l_a21oi_1
*I *1733:A I *D sg13cmos5l_and3_1
*I *1745:A I *D sg13cmos5l_nand2_1
*I *1979:X O *D sg13cmos5l_dlygate4sd3_1
*CAP
1 *1746:B1 0
2 *1733:A 0.000222052
3 *1745:A 0.000240433
4 *1979:X 0
5 *705:36 0.000188367
6 *705:8 0.000597154
7 *705:4 0.000323036
8 *1745:A *756:22 8.00842e-05
9 *1745:A *757:14 0
10 *705:36 *756:12 0.000183564
11 *705:36 *756:22 0
12 *705:36 *757:14 0
13 *1746:A2 *1733:A 0
14 *1746:A2 *1745:A 0
15 *1748:B *705:36 1.54556e-05
16 *1754:B *1745:A 0
17 *1754:B *705:36 0
18 *180:24 *1733:A 0.000533504
19 *180:24 *1745:A 0.000447058
20 *521:26 *705:36 8.00842e-05
21 *522:21 *1733:A 0
*RES
1 *1979:X *705:4 20 
2 *705:4 *705:8 20.9682 
3 *705:8 *1745:A 42.6162 
4 *705:8 *1733:A 42.575 
5 *705:4 *705:36 41.8746 
6 *705:36 *1746:B1 20 
*END

*D_NET *706 0.03072
*CONN
*I *1712:B I *D sg13cmos5l_nor2_1
*I *1699:B1 I *D sg13cmos5l_o21ai_1
*I *1663:B1 I *D sg13cmos5l_o21ai_1
*I *1636:B1 I *D sg13cmos5l_o21ai_1
*I *1647:B1 I *D sg13cmos5l_o21ai_1
*I *1624:B1 I *D sg13cmos5l_o21ai_1
*I *1675:B1 I *D sg13cmos5l_o21ai_1
*I *1599:A I *D sg13cmos5l_nand3_1
*I *1915:X O *D sg13cmos5l_buf_1
*CAP
1 *1712:B 0
2 *1699:B1 0
3 *1663:B1 0
4 *1636:B1 8.8259e-05
5 *1647:B1 0
6 *1624:B1 0
7 *1675:B1 3.60638e-05
8 *1599:A 0.000111394
9 *1915:X 0.000429565
10 *706:136 6.91683e-05
11 *706:114 0.00059277
12 *706:101 0.000572401
13 *706:91 0.00147528
14 *706:89 0.00113195
15 *706:85 0.00134864
16 *706:77 0.00164869
17 *706:62 0.00164376
18 *706:54 0.00122191
19 *706:48 0.00112353
20 *706:36 0.00212749
21 *706:30 0.00177098
22 *706:10 0.000352618
23 *706:54 *717:136 0.000113616
24 *706:101 *1932:A 0
25 *1237:A *706:48 0.000144298
26 *1267:B *706:114 0
27 *1273:A2 *706:114 7.52149e-05
28 *1279:B2 *706:114 0.000606279
29 *1598:C *706:10 0.000287706
30 *1599:B *1599:A 1.54008e-05
31 *1600:A1 *1599:A 0
32 *1600:A2 *1599:A 0
33 *1624:A1 *706:101 0
34 *1632:A2 *706:89 0
35 *1636:A1 *706:89 4.77425e-05
36 *1641:A1 *1636:B1 0.000134601
37 *1641:A1 *706:91 0.000209413
38 *1643:B *706:89 0
39 *1643:A *706:89 0.000337982
40 *1647:A2 *706:114 1.54008e-05
41 *1652:A2 *706:114 0.000236682
42 *1659:A2 *706:89 2.51105e-05
43 *1659:A1 *706:89 0
44 *1663:A2 *706:136 1.54556e-05
45 *1673:A *706:77 0
46 *1675:A2 *1675:B1 1.54118e-05
47 *1712:A *706:36 0
48 *1712:A *706:48 0
49 *1714:A2 *706:48 4.77425e-05
50 *1724:B1 *706:36 1.54008e-05
51 *1816:D *706:91 0
52 *1823:D *706:30 0
53 *1915:A *706:30 0
54 *1958:A *706:48 4.77425e-05
55 *35:10 *706:48 0.000208063
56 *60:10 *706:91 0
57 *80:42 *706:101 0.00114009
58 *84:10 *706:48 0
59 *321:31 *706:10 0.000554449
60 *338:82 *706:136 0.0001292
61 *342:18 *706:77 0
62 *372:22 *706:85 0
63 *372:28 *706:85 0
64 *372:32 *706:89 0
65 *373:45 *706:54 0.000603522
66 *373:51 *706:48 0
67 *393:40 *706:85 2.19989e-05
68 *410:22 *706:62 0.000870612
69 *410:28 *706:62 0.000211669
70 *410:56 *706:62 9.79493e-05
71 *420:12 *706:77 0
72 *427:18 *706:91 0
73 *428:36 *706:89 0.000337693
74 *431:10 *706:89 0.000143932
75 *433:18 *706:114 0.00113785
76 *440:16 *706:91 0
77 *440:16 *706:101 0
78 *450:14 *706:77 0
79 *460:8 *706:136 7.68089e-05
80 *480:8 *706:77 0.000236901
81 *495:24 *706:54 0
82 *509:18 *706:48 7.65602e-05
83 *544:21 *706:85 0
84 *544:31 *706:85 0
85 *562:8 *706:54 0.000343038
86 *562:8 *706:62 0.000131027
87 *563:26 *706:36 0.00215375
88 *563:32 *706:36 0
89 *563:50 *706:36 0.000556238
90 *563:59 *706:36 0.000342449
91 *569:14 *706:54 0
92 *574:22 *706:77 0
93 *575:25 *706:101 1.54008e-05
94 *576:33 *706:136 0
95 *578:27 *706:77 0.000212016
96 *579:8 *706:54 0.000321097
97 *579:8 *706:62 0.000131027
98 *586:101 *706:36 0
99 *586:128 *706:62 0
100 *594:20 *706:10 0
101 *597:22 *706:54 0
102 *603:8 *706:114 0
103 *630:50 *706:77 0.000288527
104 *643:67 *706:48 0
105 *650:52 *706:89 4.77425e-05
106 *652:60 *706:77 0.000113616
107 *652:60 *706:85 0.000178985
108 *671:22 *706:114 0.000555203
109 *671:59 *706:36 0
110 *684:139 *706:10 7.93152e-05
111 *695:43 *706:101 0.00113909
112 *695:51 *706:114 0
113 *695:87 *706:77 0.000128479
114 *699:12 *706:77 0
*RES
1 *1915:X *706:10 43.1736 
2 *706:10 *1599:A 41.1021 
3 *1915:X *706:30 41.6171 
4 *706:30 *706:36 38.4679 
5 *706:36 *706:48 45.2633 
6 *706:48 *706:54 27.0967 
7 *706:54 *706:62 48.2709 
8 *706:62 *1675:B1 40.3193 
9 *706:62 *706:77 29.785 
10 *706:77 *706:85 45.1191 
11 *706:85 *706:89 7.4057 
12 *706:89 *706:91 2.9149 
13 *706:91 *706:101 47.9528 
14 *706:101 *1624:B1 20 
15 *706:91 *706:114 48.6726 
16 *706:114 *1647:B1 20 
17 *706:89 *1636:B1 21.1021 
18 *706:77 *706:136 40.9167 
19 *706:136 *1663:B1 20 
20 *706:54 *1699:B1 40 
21 *706:36 *1712:B 20 
*END

*D_NET *707 0.00044889
*CONN
*I *1827:D I *D sg13cmos5l_dfrbpq_1
*I *1980:X O *D sg13cmos5l_dlygate4sd3_1
*CAP
1 *1827:D 0.000224445
2 *1980:X 0.000224445
3 *1744:A1 *1827:D 0
4 *1744:A2 *1827:D 0
5 *287:31 *1827:D 0
*RES
1 *1980:X *1827:D 42.3793 
*END

*D_NET *708 0.00580024
*CONN
*I *1751:A_N I *D sg13cmos5l_nand3b_1
*I *1755:B1 I *D sg13cmos5l_a21oi_1
*I *1734:B I *D sg13cmos5l_and3_1
*I *1754:A I *D sg13cmos5l_nand2_1
*I *1981:X O *D sg13cmos5l_dlygate4sd3_1
*CAP
1 *1751:A_N 0.000781219
2 *1755:B1 0.000126655
3 *1734:B 0.000283338
4 *1754:A 0.00016864
5 *1981:X 0.000585801
6 *708:41 0.000991679
7 *708:10 0.000953974
8 *1751:A_N *1751:C 4.77425e-05
9 *1751:A_N *712:14 8.0216e-05
10 *1751:A_N *712:16 0.000306035
11 *1751:A_N *758:8 0
12 *1751:A_N *758:16 0
13 *708:41 *758:26 0
14 *1571:A2 *708:10 0
15 *1734:C *1734:B 1.54008e-05
16 *1747:A *1754:A 8.00842e-05
17 *1753:A1 *1751:A_N 0.000176474
18 *1753:A2 *1751:A_N 0
19 *1754:B *1754:A 0
20 *203:41 *1734:B 0
21 *312:33 *1755:B1 0.000208747
22 *321:20 *1751:A_N 0
23 *364:12 *1751:A_N 0
24 *521:14 *1751:A_N 0
25 *521:14 *708:10 0
26 *524:47 *1734:B 0
27 *539:8 *1754:A 0
28 *540:10 *1751:A_N 0
29 *540:10 *1755:B1 0.000144063
30 *563:98 *1751:A_N 1.54008e-05
31 *595:37 *1751:A_N 0
32 *619:81 *1751:A_N 0
33 *634:10 *1751:A_N 0
34 *642:26 *1751:A_N 0.000235141
35 *642:26 *708:41 0.000234311
36 *663:79 *1751:A_N 0
37 *676:10 *1734:B 0
38 *676:10 *1754:A 0
39 *677:30 *1754:A 0
40 *677:68 *1734:B 0.000182872
41 *677:68 *1754:A 0.000182448
*RES
1 *1981:X *708:10 44.3775 
2 *708:10 *1754:A 41.8746 
3 *708:10 *1734:B 42.8634 
4 *1981:X *708:41 41.0918 
5 *708:41 *1755:B1 41.4008 
6 *708:41 *1751:A_N 47.7456 
*END

*D_NET *709 0.00137153
*CONN
*I *1756:B1 I *D sg13cmos5l_a21oi_1
*I *1982:X O *D sg13cmos5l_dlygate4sd3_1
*CAP
1 *1756:B1 0.000356835
2 *1982:X 0.000356835
3 *1734:C *1756:B1 0
4 *1755:A2 *1756:B1 0.000208351
5 *74:10 *1756:B1 0
6 *312:33 *1756:B1 0.000434064
7 *521:14 *1756:B1 0
8 *521:26 *1756:B1 0
9 *524:47 *1756:B1 1.54446e-05
*RES
1 *1982:X *1756:B1 43.6977 
*END

*D_NET *710 9.45957e-05
*CONN
*I *1829:D I *D sg13cmos5l_dfrbpq_1
*I *1983:X O *D sg13cmos5l_dlygate4sd3_1
*CAP
1 *1829:D 4.72978e-05
2 *1983:X 4.72978e-05
*RES
1 *1983:X *1829:D 40.5974 
*END

*D_NET *711 0.00597848
*CONN
*I *1620:A I *D sg13cmos5l_nand2_1
*I *1984:X O *D sg13cmos5l_dlygate4sd3_1
*CAP
1 *1620:A 0
2 *1984:X 0.000510464
3 *711:22 0.000341393
4 *711:14 0.00156543
5 *711:10 0.0017345
6 *711:22 *1620:B 0
7 *1553:A *711:22 0
8 *1621:A1 *711:10 4.77425e-05
9 *339:30 *711:10 0
10 *358:16 *711:14 0
11 *365:10 *711:22 0.0001127
12 *397:10 *711:22 0
13 *421:10 *711:10 0.000144729
14 *544:21 *711:14 0
15 *544:68 *711:14 0
16 *544:88 *711:14 0
17 *544:96 *711:10 0
18 *561:10 *711:10 0
19 *585:56 *711:22 0.000820371
20 *635:22 *711:14 0.000701146
21 *647:74 *711:14 0
*RES
1 *1984:X *711:10 44.7792 
2 *711:10 *711:14 32.7494 
3 *711:14 *711:22 44.5629 
4 *711:22 *1620:A 20 
*END

*D_NET *712 0.00526632
*CONN
*I *1750:A I *D sg13cmos5l_nand2_1
*I *1734:A I *D sg13cmos5l_and3_1
*I *1752:A1 I *D sg13cmos5l_o21ai_1
*I *1751:C I *D sg13cmos5l_nand3b_1
*I *1985:X O *D sg13cmos5l_dlygate4sd3_1
*CAP
1 *1750:A 0
2 *1734:A 0
3 *1752:A1 4.92262e-05
4 *1751:C 3.10612e-05
5 *1985:X 0.000336801
6 *712:48 0.000111416
7 *712:35 0.000441565
8 *712:16 0.000525421
9 *712:14 0.000373561
10 *712:10 0.000496925
11 *1743:B *1752:A1 1.54446e-05
12 *1751:B *1751:C 1.54008e-05
13 *1751:A_N *1751:C 4.77425e-05
14 *1751:A_N *712:14 8.0216e-05
15 *1751:A_N *712:16 0.000306035
16 *1752:B1 *712:35 1.54556e-05
17 *1753:A1 *712:35 0
18 *1983:A *712:35 6.99453e-05
19 *203:41 *712:48 0.000609895
20 *308:60 *712:14 0
21 *308:60 *712:16 0
22 *308:72 *712:16 0
23 *308:72 *712:35 0
24 *309:12 *712:10 0.00076619
25 *310:18 *712:10 0
26 *523:14 *1752:A1 1.54446e-05
27 *523:23 *1752:A1 6.46834e-05
28 *523:23 *712:35 4.7154e-05
29 *523:25 *712:48 0.000609895
30 *563:98 *712:35 0.000236844
31 *595:37 *712:14 0
32 *663:79 *712:35 0
*RES
1 *1985:X *712:10 43.8831 
2 *712:10 *712:14 21.4008 
3 *712:14 *712:16 2.0497 
4 *712:16 *1751:C 20.3193 
5 *712:16 *712:35 43.1621 
6 *712:35 *1752:A1 20.5356 
7 *712:35 *712:48 42.8222 
8 *712:48 *1734:A 20 
9 *712:14 *1750:A 20 
*END

*D_NET *713 0.00190238
*CONN
*I *1828:D I *D sg13cmos5l_dfrbpq_1
*I *1986:X O *D sg13cmos5l_dlygate4sd3_1
*CAP
1 *1828:D 0
2 *1986:X 0.000401029
3 *713:10 0.000401029
4 *24:16 *713:10 7.52158e-05
5 *287:29 *713:10 0
6 *299:22 *713:10 0
7 *300:24 *713:10 0
8 *663:79 *713:10 0
9 *676:25 *713:10 0.000181608
10 *676:52 *713:10 0.000608768
11 *676:65 *713:10 0.000234726
*RES
1 *1986:X *713:10 45.7371 
2 *713:10 *1828:D 40 
*END

*D_NET *714 0.0125638
*CONN
*I *1261:A I *D sg13cmos5l_xnor2_1
*I *1259:A I *D sg13cmos5l_nand2_1
*I *1987:X O *D sg13cmos5l_dlygate4sd3_1
*CAP
1 *1261:A 0.0005571
2 *1259:A 0.0012953
3 *1987:X 0
4 *714:18 0.00350289
5 *714:6 0.0027647
6 *1261:A *1964:A 0
7 *1261:A *716:8 0.000958814
8 *714:18 *716:8 0.000129077
9 *1261:B *1261:A 1.54008e-05
10 *1270:B *1259:A 0
11 *1310:A *1261:A 2.21831e-05
12 *1310:A *714:18 0.000182524
13 *1541:A *1259:A 0.000176274
14 *1639:A *1259:A 0
15 *1639:B *1259:A 0.000144877
16 *1640:B1 *1259:A 4.77153e-05
17 *1764:CLK *1261:A 0
18 *1965:A *1261:A 0
19 *1984:A *714:18 0
20 *4:38 *1261:A 0
21 *36:10 *1261:A 0
22 *80:42 *714:18 0
23 *93:8 *1259:A 0
24 *94:16 *714:18 0
25 *332:24 *1259:A 6.39133e-05
26 *339:20 *714:18 0
27 *340:26 *1259:A 0
28 *365:88 *1259:A 0
29 *365:96 *1259:A 8.01609e-05
30 *564:22 *1261:A 0
31 *573:10 *714:18 0.000129595
32 *573:37 *1259:A 0
33 *575:25 *1259:A 0
34 *576:33 *1259:A 0
35 *611:10 *714:18 0
36 *611:18 *714:18 0
37 *612:53 *1259:A 0
38 *617:10 *1259:A 0
39 *654:8 *1259:A 4.75278e-05
40 *655:42 *714:18 0.000610526
41 *672:45 *714:18 0.00183523
42 *689:24 *714:18 0
43 *695:26 *714:18 0
*RES
1 *1987:X *714:6 40 
2 *714:6 *714:18 43.1647 
3 *714:18 *1259:A 31.5051 
4 *714:6 *1261:A 46.8186 
*END

*D_NET *715 0.000552866
*CONN
*I *1310:B I *D sg13cmos5l_xor2_1
*I *1988:X O *D sg13cmos5l_dlygate4sd3_1
*CAP
1 *1310:B 0.000155424
2 *1988:X 0.000155424
3 *1601:A1 *1310:B 0
4 *40:10 *1310:B 0.000242018
5 *655:42 *1310:B 0
*RES
1 *1988:X *1310:B 41.6171 
*END

*D_NET *716 0.00294021
*CONN
*I *1764:D I *D sg13cmos5l_dfrbpq_1
*I *1989:X O *D sg13cmos5l_dlygate4sd3_1
*CAP
1 *1764:D 0.000211724
2 *1989:X 0.000622814
3 *716:8 0.000834538
4 *1261:A *716:8 0.000958814
5 *1965:A *716:8 0
6 *572:8 *716:8 0
7 *655:42 *716:8 0.000183242
8 *674:45 *1764:D 0
9 *674:51 *716:8 0
10 *681:10 *716:8 0
11 *681:18 *716:8 0
12 *690:10 *716:8 0
13 *714:18 *716:8 0.000129077
*RES
1 *1989:X *716:8 49.0022 
2 *716:8 *1764:D 41.6171 
*END

*D_NET *717 0.0165772
*CONN
*I *1690:B I *D sg13cmos5l_nand2_1
*I *1620:B I *D sg13cmos5l_nand2_1
*I *1628:B I *D sg13cmos5l_nand2_1
*I *1653:B I *D sg13cmos5l_nand2_1
*I *1688:A I *D sg13cmos5l_or2_1
*I *1677:B I *D sg13cmos5l_nand2_1
*I *1665:B I *D sg13cmos5l_nand2_1
*I *1642:B I *D sg13cmos5l_nand2_1
*I *1916:X O *D sg13cmos5l_buf_1
*CAP
1 *1690:B 0
2 *1620:B 2.82958e-05
3 *1628:B 9.12822e-05
4 *1653:B 3.07513e-05
5 *1688:A 0
6 *1677:B 0
7 *1665:B 0
8 *1642:B 0
9 *1916:X 0.000247613
10 *717:136 0.000632658
11 *717:119 0.000874355
12 *717:109 0.00156348
13 *717:105 0.000213543
14 *717:76 0.000371761
15 *717:50 0.00122737
16 *717:46 0.0012717
17 *717:40 0.000312828
18 *717:30 0.000999006
19 *717:16 0.00185859
20 *717:10 0.00149665
21 *717:16 *1934:A 0
22 *717:16 *752:8 0
23 *717:30 *1934:A 0
24 *717:30 *719:12 0
25 *717:30 *751:10 0
26 *1553:A *717:119 0.000875469
27 *1653:A *1653:B 0
28 *1677:A *717:30 0
29 *1677:A *717:40 0
30 *1684:B1 *717:10 0
31 *1688:B *717:16 0.000209098
32 *1688:B *717:30 0
33 *1689:B1 *717:30 0
34 *1690:A *717:136 0
35 *1691:A1 *1620:B 4.78688e-05
36 *1691:A1 *717:119 6.99179e-05
37 *1700:B1 *717:105 0.00017635
38 *1703:A2 *717:136 4.77425e-05
39 *1717:B *717:136 0.00014445
40 *1771:CLK *717:16 0
41 *83:14 *1628:B 4.77425e-05
42 *83:14 *1653:B 4.77425e-05
43 *111:12 *717:30 0
44 *113:22 *717:30 0
45 *342:18 *717:76 0
46 *365:10 *1620:B 0
47 *365:10 *717:119 0
48 *365:56 *717:119 0
49 *365:56 *717:136 0.000111145
50 *373:37 *717:105 0
51 *378:51 *717:50 0
52 *382:10 *717:16 0.00023464
53 *410:16 *717:119 0
54 *420:8 *717:119 0
55 *472:8 *717:30 0.00130346
56 *479:8 *717:16 0
57 *479:8 *717:76 7.51285e-05
58 *481:8 *717:16 0
59 *483:10 *717:16 0.000554579
60 *484:8 *717:136 0.000110829
61 *484:16 *717:136 0
62 *487:12 *717:119 0.000287256
63 *509:18 *717:136 6.1449e-05
64 *544:43 *717:76 0
65 *578:10 *717:16 0
66 *578:21 *717:16 0
67 *578:21 *717:76 0
68 *597:16 *717:136 0.000396766
69 *597:22 *717:109 0
70 *597:22 *717:136 0
71 *631:14 *717:16 0
72 *645:16 *717:136 0
73 *645:22 *717:136 0
74 *645:37 *717:119 0
75 *646:26 *717:136 0.000394295
76 *648:18 *717:40 0
77 *648:20 *717:40 0
78 *648:20 *717:46 0
79 *648:80 *717:10 4.77425e-05
80 *649:87 *717:76 0
81 *706:54 *717:136 0.000113616
82 *711:22 *1620:B 0
*RES
1 *1916:X *717:10 41.0712 
2 *717:10 *717:16 30.9901 
3 *717:16 *717:30 49.1567 
4 *717:30 *717:40 2.22995 
5 *717:40 *717:46 40.3193 
6 *717:46 *717:50 33.7299 
7 *717:50 *1642:B 40 
8 *717:40 *1665:B 20 
9 *717:30 *1677:B 20 
10 *717:16 *1688:A 20 
11 *717:10 *717:76 2.6162 
12 *717:76 *1653:B 40.3193 
13 *717:76 *1628:B 40.9167 
14 *1916:X *717:105 41.1845 
15 *717:105 *717:109 20.9682 
16 *717:109 *717:119 49.888 
17 *717:119 *1620:B 20.3193 
18 *717:109 *717:136 47.4083 
19 *717:136 *1690:B 20 
*END

*D_NET *718 0.00835727
*CONN
*I *1305:B I *D sg13cmos5l_nor2_1
*I *1304:B I *D sg13cmos5l_nand2_1
*I *1306:B I *D sg13cmos5l_xnor2_1
*I *1990:X O *D sg13cmos5l_dlygate4sd3_1
*CAP
1 *1305:B 5.91688e-05
2 *1304:B 0.000434534
3 *1306:B 0.000142699
4 *1990:X 6.68694e-05
5 *718:19 0.00101566
6 *718:6 0.000731524
7 *129:8 *1304:B 0.000273299
8 *129:14 *1304:B 0.000447183
9 *129:14 *718:19 0.00240262
10 *130:12 *1306:B 0
11 *586:105 *1306:B 0
12 *594:69 *1306:B 0.00017656
13 *643:67 *1306:B 0
14 *671:59 *1304:B 0.000181608
15 *671:59 *718:19 0.00242555
*RES
1 *1990:X *718:6 20.8446 
2 *718:6 *1306:B 21.4008 
3 *718:6 *718:19 31.9224 
4 *718:19 *1304:B 44.5938 
5 *718:19 *1305:B 40.5356 
*END

*D_NET *719 0.00480671
*CONN
*I *1776:D I *D sg13cmos5l_dfrbpq_1
*I *1991:X O *D sg13cmos5l_dlygate4sd3_1
*CAP
1 *1776:D 0
2 *1991:X 0.00190881
3 *719:12 0.00190881
4 *1267:B *719:12 0
5 *1273:A2 *719:12 0
6 *1660:A *719:12 0
7 *1676:A2 *719:12 0
8 *1689:B1 *719:12 0
9 *1767:D *719:12 0
10 *1768:D *719:12 0
11 *1818:RESET_B *719:12 0
12 *1818:CLK *719:12 0.000597242
13 *1917:A *719:12 8.00842e-05
14 *1918:A *719:12 8.00842e-05
15 *102:16 *719:12 0.000231678
16 *104:25 *719:12 0
17 *380:8 *719:12 0
18 *649:51 *719:12 0
19 *669:36 *719:12 0
20 *717:30 *719:12 0
*RES
1 *1991:X *719:12 37.9941 
2 *719:12 *1776:D 20 
*END

*D_NET *720 0.00357541
*CONN
*I *1736:A1 I *D sg13cmos5l_a21o_1
*I *1732:A I *D sg13cmos5l_nor2b_1
*I *1735:A I *D sg13cmos5l_nor3_1
*I *1992:X O *D sg13cmos5l_dlygate4sd3_1
*CAP
1 *1736:A1 0
2 *1732:A 0.000224805
3 *1735:A 0
4 *1992:X 0.000119851
5 *720:14 0.000577354
6 *720:8 0.0004724
7 *1732:B_N *1732:A 3.8502e-05
8 *1732:B_N *720:14 0.000192454
9 *1735:B *720:14 0
10 *1737:A *720:14 8.00842e-05
11 *1737:B *720:14 0.000112308
12 *202:67 *720:8 0.000609511
13 *202:67 *720:14 0.000394839
14 *524:8 *1732:A 0.000176873
15 *524:10 *1732:A 0
16 *635:8 *720:14 0
17 *636:20 *720:8 0.000235567
18 *636:33 *720:8 0.000340867
*RES
1 *1992:X *720:8 42.8222 
2 *720:8 *720:14 23.6668 
3 *720:14 *1735:A 20 
4 *720:14 *1732:A 22.266 
5 *720:8 *1736:A1 40 
*END

*D_NET *721 0.00406164
*CONN
*I *1330:A I *D sg13cmos5l_nor2_1
*I *1331:A I *D sg13cmos5l_and2_1
*I *1993:X O *D sg13cmos5l_dlygate4sd3_1
*CAP
1 *1330:A 0.000393511
2 *1331:A 8.41268e-05
3 *1993:X 0.00100388
4 *721:10 0.000694492
5 *1330:A *739:14 0.000144217
6 *1324:A *1330:A 0
7 *1324:A *721:10 0.000240383
8 *1324:B *1330:A 0.000177053
9 *1330:B *1330:A 0
10 *1331:B *1331:A 4.78356e-05
11 *1784:D *1330:A 0.000241874
12 *1784:D *721:10 0
13 *142:8 *1330:A 0
14 *144:20 *721:10 0.00103427
15 *146:10 *1330:A 0
16 *567:43 *1330:A 0
*RES
1 *1993:X *721:10 46.4169 
2 *721:10 *1331:A 40.7519 
3 *1993:X *1330:A 44.2951 
*END

*D_NET *722 0.000397426
*CONN
*I *1332:B I *D sg13cmos5l_nor3_1
*I *1994:X O *D sg13cmos5l_dlygate4sd3_1
*CAP
1 *1332:B 0
2 *1994:X 4.40368e-05
3 *722:8 4.40368e-05
4 *1332:C *722:8 0.00012816
5 *639:101 *722:8 0.000181192
*RES
1 *1994:X *722:8 40.8446 
2 *722:8 *1332:B 40 
*END

*D_NET *723 0.00547298
*CONN
*I *1741:A I *D sg13cmos5l_nand2_1
*I *1742:A I *D sg13cmos5l_xor2_1
*I *1995:X O *D sg13cmos5l_dlygate4sd3_1
*CAP
1 *1741:A 0.000610913
2 *1742:A 0.000472492
3 *1995:X 6.93473e-05
4 *723:8 0.00115275
5 *1742:A *1995:A 0
6 *723:8 *1995:A 0
7 *1741:B *1741:A 0.00011244
8 *1809:CLK *1741:A 0
9 *1975:A *1741:A 8.02379e-05
10 *180:24 *1742:A 0.00162115
11 *180:24 *723:8 0.000160013
12 *193:12 *1741:A 0
13 *193:22 *1741:A 0
14 *300:24 *1742:A 0.00103332
15 *308:72 *1742:A 8.00842e-05
16 *529:10 *1741:A 0
17 *564:18 *1741:A 8.02379e-05
*RES
1 *1995:X *723:8 40.8446 
2 *723:8 *1742:A 48.0546 
3 *723:8 *1741:A 45.8722 
*END

*D_NET *724 0.00192994
*CONN
*I *1826:D I *D sg13cmos5l_dfrbpq_1
*I *1996:X O *D sg13cmos5l_dlygate4sd3_1
*CAP
1 *1826:D 4.41534e-05
2 *1996:X 0.000532995
3 *724:10 0.000577148
4 *724:10 *1995:A 0
5 *50:14 *724:10 7.53228e-05
6 *299:16 *724:10 0.000144911
7 *300:24 *724:10 0
8 *677:81 *724:10 0
9 *682:20 *724:10 0.000555408
*RES
1 *1996:X *724:10 45.8607 
2 *724:10 *1826:D 40.3193 
*END

*D_NET *725 0.00422769
*CONN
*I *1348:A1 I *D sg13cmos5l_a21oi_1
*I *1349:A1 I *D sg13cmos5l_o21ai_1
*I *1997:X O *D sg13cmos5l_dlygate4sd3_1
*CAP
1 *1348:A1 0.000577755
2 *1349:A1 0.000638119
3 *1997:X 3.34444e-05
4 *725:8 0.00124932
5 *1348:A1 *1997:A 0.000159096
6 *1348:A1 *731:12 0.000234224
7 *1349:A1 *731:12 0.00113326
8 *1348:A2 *1348:A1 0.00013933
9 *1348:B1 *1348:A1 0
10 *1349:B1 *1349:A1 0
11 *157:27 *1349:A1 1.54008e-05
12 *566:27 *1348:A1 0
13 *566:29 *1348:A1 0
14 *703:12 *1348:A1 0
15 *704:12 *725:8 4.77425e-05
*RES
1 *1997:X *725:8 40.3193 
2 *725:8 *1349:A1 46.2315 
3 *725:8 *1348:A1 45.4538 
*END

*D_NET *726 0.00189
*CONN
*I *1350:A I *D sg13cmos5l_inv_1
*I *1998:X O *D sg13cmos5l_dlygate4sd3_1
*CAP
1 *1350:A 4.15355e-05
2 *1998:X 0.000296521
3 *726:10 0.000338057
4 *1760:B1 *1350:A 0
5 *1788:RESET_B *726:10 0
6 *76:8 *726:10 0.000607195
7 *308:16 *726:10 0.000606693
*RES
1 *1998:X *726:10 44.223 
2 *726:10 *1350:A 40.3193 
*END

*D_NET *727 0.00759065
*CONN
*I *1279:A1 I *D sg13cmos5l_a221oi_1
*I *1274:A I *D sg13cmos5l_nor2_1
*I *1275:A I *D sg13cmos5l_xor2_1
*I *1999:X O *D sg13cmos5l_dlygate4sd3_1
*CAP
1 *1279:A1 0.000631044
2 *1274:A 0.000263693
3 *1275:A 0
4 *1999:X 3.42104e-05
5 *727:16 0.00101954
6 *727:8 0.0014211
7 *1271:B *1274:A 0.000274228
8 *1271:B *727:16 0.000144441
9 *1279:B1 *1279:A1 0.000111839
10 *1279:A2 *1279:A1 1.54008e-05
11 *101:12 *727:16 0
12 *107:8 *1279:A1 0.000611948
13 *107:8 *727:16 0
14 *432:14 *727:16 0.000767787
15 *433:18 *1279:A1 0
16 *433:18 *727:16 0.000553748
17 *445:8 *1279:A1 0.000926424
18 *560:26 *727:8 4.77154e-05
19 *610:20 *1274:A 0
20 *610:20 *727:16 0
21 *671:22 *727:16 0
22 *672:72 *727:16 0
23 *695:51 *1279:A1 0.000767523
*RES
1 *1999:X *727:8 40.3193 
2 *727:8 *727:16 28.8065 
3 *727:16 *1275:A 20 
4 *727:16 *1274:A 22.6162 
5 *727:8 *1279:A1 48.7653 
*END

*D_NET *728 0.00196024
*CONN
*I *1963:A I *D sg13cmos5l_dlygate4sd3_1
*I *1777:Q O *D sg13cmos5l_dfrbpq_1
*CAP
1 *1963:A 0.000154347
2 *1777:Q 0.000204064
3 *728:10 0.000358411
4 *1777:RESET_B *728:10 0.000342659
5 *89:29 *1963:A 7.93167e-05
6 *90:37 *728:10 0.000395682
7 *134:8 *728:10 0
8 *262:10 *728:10 7.89542e-05
9 *651:22 *1963:A 0.000111658
10 *678:69 *728:10 0.000235153
*RES
1 *1777:Q *728:10 43.1106 
2 *728:10 *1963:A 41.5347 
*END

*D_NET *729 0.0038677
*CONN
*I *1413:A1 I *D sg13cmos5l_a21oi_1
*I *1412:A I *D sg13cmos5l_or2_1
*I *1970:A I *D sg13cmos5l_dlygate4sd3_1
*I *1787:Q O *D sg13cmos5l_dfrbpq_1
*CAP
1 *1413:A1 0
2 *1412:A 0.000708863
3 *1970:A 8.88166e-05
4 *1787:Q 0.000145356
5 *729:23 0.00104813
6 *729:8 0.000573436
7 *1342:B1 *729:23 0.000372884
8 *1343:A *729:23 0.000235065
9 *1344:B *729:23 4.77425e-05
10 *1413:A2 *1412:A 0.000287872
11 *1413:A2 *729:23 1.54008e-05
12 *1972:A *1412:A 4.7803e-05
13 *174:41 *1412:A 0
14 *221:8 *1412:A 0
15 *222:14 *1412:A 0.000296338
*RES
1 *1787:Q *729:8 21.3493 
2 *729:8 *1970:A 20.7519 
3 *729:8 *729:23 43.5741 
4 *729:23 *1412:A 26.7362 
5 *729:23 *1413:A1 20 
*END

*D_NET *730 0.00258908
*CONN
*I *1413:B1 I *D sg13cmos5l_a21oi_1
*I *1976:A I *D sg13cmos5l_dlygate4sd3_1
*I *1788:Q O *D sg13cmos5l_dfrbpq_1
*CAP
1 *1413:B1 0
2 *1976:A 7.75677e-05
3 *1788:Q 0.0002305
4 *730:27 0.000347088
5 *730:12 0.000507666
6 *730:8 0.000313511
7 *1976:A *1343:B 0
8 *730:12 *1343:B 0
9 *1343:A *730:27 0.000607523
10 *1343:C *730:8 0.000234224
11 *1344:B *730:27 4.77425e-05
12 *1787:D *1976:A 0.000112426
13 *1787:D *730:12 0.000110829
14 *1787:CLK *730:8 0
*RES
1 *1788:Q *730:8 42.3278 
2 *730:8 *730:12 20.7519 
3 *730:12 *1976:A 20.7519 
4 *730:12 *730:27 43.5741 
5 *730:27 *1413:B1 20 
*END

*D_NET *731 0.00740245
*CONN
*I *1997:A I *D sg13cmos5l_dlygate4sd3_1
*I *1415:A I *D sg13cmos5l_nor2b_1
*I *1416:A I *D sg13cmos5l_nor4_1
*I *1789:Q O *D sg13cmos5l_dfrbpq_1
*CAP
1 *1997:A 0.00018118
2 *1415:A 0
3 *1416:A 0
4 *1789:Q 0.00069425
5 *731:30 0.000461751
6 *731:16 0.000865496
7 *731:12 0.00127917
8 *1346:A *731:16 0.000724147
9 *1346:A *731:30 4.77425e-05
10 *1346:B *731:16 0.000708747
11 *1346:B *731:30 4.78356e-05
12 *1348:A1 *1997:A 0.000159096
13 *1348:A1 *731:12 0.000234224
14 *1349:B1 *731:12 0.000177209
15 *1349:A1 *731:12 0.00113326
16 *1416:D *731:30 0
17 *1807:CLK *731:30 0.000240739
18 *159:8 *731:12 0
19 *224:10 *731:30 0.000447597
20 *225:14 *731:30 0
21 *544:174 *731:30 0
22 *566:27 *731:30 0
23 *704:12 *731:12 0
*RES
1 *1789:Q *731:12 47.8177 
2 *731:12 *731:16 24.8616 
3 *731:16 *731:30 44.9028 
4 *731:30 *1416:A 20 
5 *731:16 *1415:A 20 
6 *731:12 *1997:A 41.8128 
*END

*D_NET *732 0.00146266
*CONN
*I *1927:A I *D sg13cmos5l_dlygate4sd3_1
*I *1778:Q O *D sg13cmos5l_dfrbpq_1
*CAP
1 *1927:A 0.00061117
2 *1778:Q 0.00061117
3 vctrl_out *1927:A 0
4 *1777:D *1927:A 0.000240318
5 *639:39 *1927:A 0
6 *639:50 *1927:A 0
*RES
1 *1778:Q *1927:A 46.0976 
*END

*D_NET *733 0.002849
*CONN
*I *1950:A I *D sg13cmos5l_dlygate4sd3_1
*I *1388:A1 I *D sg13cmos5l_a221oi_1
*I *1779:Q O *D sg13cmos5l_dfrbpq_1
*CAP
1 *1950:A 0.000167321
2 *1388:A1 0.000482494
3 *1779:Q 0.000188719
4 *733:10 0.000838534
5 *1317:A *1388:A1 0
6 *16:8 *1388:A1 0.000181093
7 *621:12 *1950:A 0.000274583
8 *623:8 *733:10 0
9 *639:50 *1388:A1 0
10 *639:50 *733:10 0
11 *659:14 *1388:A1 0
12 *667:14 *1388:A1 0
13 *667:18 *1388:A1 0
14 *668:41 *1950:A 0
15 *668:41 *733:10 0
16 *668:64 *1388:A1 0.000716255
*RES
1 *1779:Q *733:10 42.1527 
2 *733:10 *1388:A1 46.283 
3 *733:10 *1950:A 41.8334 
*END

*D_NET *734 0.0023935
*CONN
*I *1454:A I *D sg13cmos5l_nor2_1
*I *1948:A I *D sg13cmos5l_dlygate4sd3_1
*I *1780:Q O *D sg13cmos5l_dfrbpq_1
*CAP
1 *1454:A 0
2 *1948:A 0.000207203
3 *1780:Q 0
4 *734:19 0.000725846
5 *734:4 0.00093305
6 *1452:B *734:19 0
7 *1454:B *734:19 0
8 *1458:B1 *734:19 0
9 *1949:A *1948:A 0
10 *135:20 *734:19 8.0216e-05
11 *141:10 *734:19 0.000447182
12 *188:52 *734:19 0
13 *261:10 *734:19 0
14 *602:8 *734:19 0
*RES
1 *1780:Q *734:4 20 
2 *734:4 *1948:A 22.266 
3 *734:4 *734:19 48.0546 
4 *734:19 *1454:A 20 
*END

*D_NET *735 0.00924719
*CONN
*I *1930:A I *D sg13cmos5l_dlygate4sd3_1
*I *1452:A I *D sg13cmos5l_nor2_1
*I *1458:A1 I *D sg13cmos5l_a221oi_1
*I *1468:B2 I *D sg13cmos5l_a22oi_1
*I *1467:A1 I *D sg13cmos5l_o21ai_1
*I *1240:A I *D sg13cmos5l_inv_1
*I *1396:B1 I *D sg13cmos5l_o21ai_1
*I *1781:Q O *D sg13cmos5l_dfrbpq_1
*CAP
1 *1930:A 0.000146077
2 *1452:A 0.000118963
3 *1458:A1 7.20289e-05
4 *1468:B2 0
5 *1467:A1 0.000214977
6 *1240:A 0.000125822
7 *1396:B1 0.000453978
8 *1781:Q 0.000232381
9 *735:35 0.000486499
10 *735:33 0.000493415
11 *735:14 0.00105995
12 *735:12 0.00112844
13 *735:10 0.00100341
14 *1391:A1 *1467:A1 8.00842e-05
15 *1391:A1 *735:33 0
16 *1391:A1 *735:35 0
17 *1396:A1 *1396:B1 0
18 *1396:A2 *1396:B1 4.77425e-05
19 *1397:C *1396:B1 1.54008e-05
20 *1397:A *1396:B1 0
21 *1451:B *735:14 0
22 *1452:B *735:12 0
23 *1458:B1 *1458:A1 0.000112437
24 *1458:A2 *1458:A1 0
25 *1458:A2 *735:14 0
26 *18:8 *735:12 0
27 *141:36 *735:12 0
28 *141:44 *1452:A 0
29 *141:44 *1930:A 0
30 *141:44 *735:10 0
31 *143:16 *735:12 0
32 *165:22 *1396:B1 0
33 *173:20 *1240:A 4.77425e-05
34 *173:20 *1396:B1 0
35 *189:8 *1240:A 0.000288087
36 *199:24 *1396:B1 0.000553748
37 *199:24 *1458:A1 4.77425e-05
38 *199:24 *735:14 0.000714298
39 *247:18 *735:33 0.000468858
40 *256:37 *735:33 0
41 *256:37 *735:35 0
42 *265:12 *735:12 0.000234224
43 *273:20 *735:33 0.000306964
44 *274:16 *1467:A1 0
45 *278:14 *735:33 0
46 *601:10 *735:12 0
47 *627:12 *735:12 0
48 *641:48 *1467:A1 0.000241088
49 *661:104 *735:35 0
50 *666:22 *735:33 0
51 *666:32 *1240:A 0.000393736
52 *666:32 *735:35 0.000159096
53 *668:103 *1396:B1 0
*RES
1 *1781:Q *735:10 40.9167 
2 *735:10 *735:12 7.8902 
3 *735:12 *735:14 3.5638 
4 *735:14 *1396:B1 44.9955 
5 *735:14 *735:33 43.9758 
6 *735:33 *735:35 1.5862 
7 *735:35 *1240:A 42.1527 
8 *735:35 *1467:A1 42.0497 
9 *735:33 *1468:B2 40 
10 *735:12 *1458:A1 40.7519 
11 *735:10 *1452:A 41.1845 
12 *1781:Q *1930:A 41.6171 
*END

*D_NET *736 0.0031331
*CONN
*I *1954:A I *D sg13cmos5l_dlygate4sd3_1
*I *1470:A I *D sg13cmos5l_or2_1
*I *1782:Q O *D sg13cmos5l_dfrbpq_1
*CAP
1 *1954:A 0.000459644
2 *1470:A 0.000249558
3 *1782:Q 0
4 *736:6 0.000709202
5 *1470:A *737:14 0
6 *1954:A *737:14 0
7 *1324:A *1954:A 0
8 *21:8 *1470:A 0.00034079
9 *21:8 *1954:A 0.000767208
10 *142:8 *1954:A 0
11 *145:10 *1954:A 0
12 *148:22 *1470:A 0
13 *567:51 *1954:A 0
14 *680:67 *1954:A 0.000606695
*RES
1 *1782:Q *736:6 40 
2 *736:6 *1470:A 42.6471 
3 *736:6 *1954:A 46.1079 
*END

*D_NET *737 0.0104771
*CONN
*I *1993:A I *D sg13cmos5l_dlygate4sd3_1
*I *1376:A I *D sg13cmos5l_or2_1
*I *1367:A1 I *D sg13cmos5l_a22oi_1
*I *1436:A I *D sg13cmos5l_nor2_1
*I *1439:A1 I *D sg13cmos5l_a22oi_1
*I *1783:Q O *D sg13cmos5l_dfrbpq_1
*CAP
1 *1993:A 0.000134026
2 *1376:A 4.2857e-05
3 *1367:A1 2.29051e-05
4 *1436:A 0.000547309
5 *1439:A1 0.000531766
6 *1783:Q 3.80631e-05
7 *737:24 0.00120378
8 *737:18 0.000300127
9 *737:14 0.00165652
10 *737:6 0.00163324
11 *1439:A1 *1439:B2 0
12 *1439:A1 *738:26 0
13 *737:18 *738:26 0.000181192
14 *737:24 *738:26 0
15 vctrl_b_out *1993:A 0.000103377
16 vctrl_b_out *737:14 0
17 *1357:A *1436:A 5.39028e-06
18 *1368:A *737:14 0.000532395
19 *1380:A *1436:A 0.000241847
20 *1437:A2 *1436:A 0
21 *1450:B *1436:A 4.78359e-05
22 *1461:B1 *1436:A 0
23 *1461:A2 *1367:A1 0
24 *1461:A2 *1436:A 4.68099e-05
25 *1470:A *737:14 0
26 *1782:D *1993:A 0.000192871
27 *1782:D *737:14 0.000339376
28 *1954:A *737:14 0
29 *135:36 *737:14 0
30 *135:74 *1439:A1 0.000127557
31 *144:20 *737:14 0
32 *148:22 *737:14 0
33 *175:22 *1367:A1 4.78524e-05
34 *175:22 *1436:A 7.74989e-05
35 *175:22 *737:24 0.000111568
36 *176:10 *737:18 0.00018128
37 *176:27 *737:14 0.00034162
38 *176:27 *737:18 0.000213286
39 *214:20 *1436:A 0
40 *250:8 *1439:A1 0
41 *257:14 *1439:A1 7.51544e-05
42 *269:10 *1439:A1 7.68089e-05
43 *269:10 *737:14 0
44 *269:10 *737:18 0
45 *269:10 *737:24 0.000107929
46 *270:14 *1439:A1 0
47 *270:35 *1439:A1 7.51285e-05
48 *618:10 *1439:A1 0.000291986
49 *627:12 *737:14 0
50 *637:84 *1436:A 0
51 *665:12 *1439:A1 7.54103e-05
52 *666:92 *737:14 0
53 *680:67 *737:14 0.000872356
*RES
1 *1783:Q *737:6 20.3502 
2 *737:6 *737:14 37.2113 
3 *737:14 *737:18 22.3278 
4 *737:18 *737:24 21.3493 
5 *737:24 *1439:A1 45.1655 
6 *737:24 *1436:A 45.3148 
7 *737:18 *1367:A1 20.3193 
8 *737:14 *1376:A 40.3193 
9 *737:6 *1993:A 21.4008 
*END

*D_NET *738 0.00810923
*CONN
*I *1922:A I *D sg13cmos5l_dlygate4sd3_1
*I *1369:A I *D sg13cmos5l_nor2_1
*I *1367:B2 I *D sg13cmos5l_a22oi_1
*I *1441:A I *D sg13cmos5l_nor2_1
*I *1439:B2 I *D sg13cmos5l_a22oi_1
*I *1784:Q O *D sg13cmos5l_dfrbpq_1
*CAP
1 *1922:A 0.000135162
2 *1369:A 0.000359324
3 *1367:B2 0
4 *1441:A 0.000146061
5 *1439:B2 0.000446243
6 *1784:Q 0.000299433
7 *738:26 0.000917473
8 *738:20 0.000985843
9 *738:16 0.000904594
10 *738:10 0.00103784
11 *738:10 *739:41 0.000502061
12 *738:16 *739:41 0
13 *1336:A *1922:A 0
14 *1368:A *738:20 0.000287343
15 *1370:B *1369:A 0
16 *1377:A_N *738:20 0
17 *1439:A2 *1439:B2 3.15716e-05
18 *1439:A1 *1439:B2 0
19 *1439:A1 *738:26 0
20 *1448:A *1439:B2 0
21 *1896:A *1439:B2 0.000110936
22 *22:10 *738:10 0
23 *148:14 *1369:A 0
24 *148:22 *738:20 0
25 *173:20 *738:26 8.00842e-05
26 *173:35 *1369:A 4.78195e-05
27 *173:35 *738:20 0.000289428
28 *173:35 *738:26 3.23417e-05
29 *175:22 *738:26 0
30 *175:43 *1369:A 0
31 *175:43 *738:26 0
32 *176:10 *1369:A 3.24568e-05
33 *176:10 *738:20 0.000129186
34 *176:10 *738:26 4.78359e-05
35 *176:27 *738:20 0.000553562
36 *179:12 *1369:A 0
37 *214:20 *1441:A 0.000208063
38 *223:26 *1439:B2 0
39 *223:26 *738:26 0
40 *248:10 *1439:B2 3.15716e-05
41 *257:14 *1439:B2 0.000235249
42 *269:10 *738:26 0
43 *270:35 *738:26 7.65602e-05
44 *641:48 *1369:A 0
45 *737:18 *738:26 0.000181192
46 *737:24 *738:26 0
*RES
1 *1784:Q *738:10 43.3578 
2 *738:10 *738:16 46.8083 
3 *738:16 *738:20 24.3054 
4 *738:20 *738:26 23.3269 
5 *738:26 *1439:B2 44.1509 
6 *738:26 *1441:A 41.4008 
7 *738:20 *1367:B2 20 
8 *738:20 *1369:A 23.5535 
9 *738:10 *1922:A 40.9682 
*END

*D_NET *739 0.0116013
*CONN
*I *1405:A1 I *D sg13cmos5l_o21ai_1
*I *1407:B1 I *D sg13cmos5l_o21ai_1
*I *1442:A I *D sg13cmos5l_nor3_1
*I *1404:A1 I *D sg13cmos5l_a21oi_1
*I *1923:A I *D sg13cmos5l_dlygate4sd3_1
*I *1785:Q O *D sg13cmos5l_dfrbpq_1
*CAP
1 *1405:A1 1.80069e-05
2 *1407:B1 6.66161e-05
3 *1442:A 4.17092e-05
4 *1404:A1 3.81807e-05
5 *1923:A 7.81931e-05
6 *1785:Q 0.000526432
7 *739:76 0.00050454
8 *739:59 0.000514271
9 *739:57 0.000419178
10 *739:51 0.00104624
11 *739:41 0.00156345
12 *739:16 0.000916701
13 *739:14 0.000526432
14 *1405:A1 *740:28 3.04166e-05
15 *739:59 *740:28 0.00012816
16 *1330:A *739:14 0.000144217
17 *1335:A *1923:A 0
18 *1340:A1 *739:51 0.000236486
19 *1343:C *739:51 7.68089e-05
20 *1403:B *739:76 0
21 *1404:A2 *1404:A1 1.54008e-05
22 *1405:A2 *739:59 0
23 *1407:A2 *739:76 0
24 *1414:A *1405:A1 0
25 *1443:A_N *1407:B1 0
26 *1443:A_N *1442:A 0
27 *1783:D *1923:A 8.01938e-05
28 *1784:D *739:14 0.000241716
29 *1784:CLK *739:41 0.000144089
30 *1785:RESET_B *739:41 0.000395396
31 *1786:CLK *739:51 0
32 *1994:A *1923:A 0
33 *1994:A *739:41 0
34 *12:18 *739:76 4.77425e-05
35 *20:8 *739:14 0.000606365
36 *22:10 *739:51 0
37 *23:16 *739:51 7.68089e-05
38 *23:16 *739:57 0.000409472
39 *151:32 *739:51 0.000321923
40 *151:34 *739:51 0.00021425
41 *211:19 *739:76 0
42 *212:8 *739:76 0.000394576
43 *216:8 *739:76 0.000143358
44 *567:19 *739:41 0
45 *567:43 *739:14 0
46 *615:12 *739:51 0.000181608
47 *639:101 *739:14 0
48 *639:112 *739:14 0.000394151
49 *641:60 *739:57 0
50 *641:60 *739:76 0.000160013
51 *641:66 *739:76 0.000396106
52 *738:10 *739:41 0.000502061
53 *738:16 *739:41 0
*RES
1 *1785:Q *739:14 46.4375 
2 *739:14 *739:16 20 
3 *739:16 *1923:A 20.7519 
4 *739:16 *739:41 48.9816 
5 *739:41 *739:51 48.7241 
6 *739:51 *739:57 23.5123 
7 *739:57 *739:59 0.8446 
8 *739:59 *1404:A1 40.3193 
9 *739:59 *739:76 25.1053 
10 *739:76 *1442:A 20.3502 
11 *739:76 *1407:B1 20.5974 
12 *739:57 *1405:A1 40.2034 
*END

*D_NET *740 0.0111136
*CONN
*I *1943:A I *D sg13cmos5l_dlygate4sd3_1
*I *1342:A1 I *D sg13cmos5l_a21oi_1
*I *1403:A I *D sg13cmos5l_xnor2_1
*I *1359:A I *D sg13cmos5l_and2_1
*I *1409:B1 I *D sg13cmos5l_a21oi_1
*I *1360:B1 I *D sg13cmos5l_o21ai_1
*I *1343:B I *D sg13cmos5l_and3_1
*I *1786:Q O *D sg13cmos5l_dfrbpq_1
*CAP
1 *1943:A 0
2 *1342:A1 0.000129404
3 *1403:A 0
4 *1359:A 0
5 *1409:B1 0
6 *1360:B1 0
7 *1343:B 0.000562589
8 *1786:Q 0.000248372
9 *740:71 0.00052535
10 *740:57 0.00091314
11 *740:47 0.000517511
12 *740:30 0.000863135
13 *740:28 0.000593478
14 *740:18 0.00123087
15 *740:10 0.000927185
16 *1338:A *740:18 0.00018211
17 *1339:B1 *1342:A1 0
18 *1342:A2 *1342:A1 1.54008e-05
19 *1343:A *1343:B 7.88655e-05
20 *1359:B *740:57 0.000258168
21 *1404:A2 *740:28 1.54008e-05
22 *1405:A1 *740:28 3.04166e-05
23 *1405:A2 *740:28 7.52158e-05
24 *1409:A1 *740:57 0
25 *1411:A *740:57 4.67813e-05
26 *1411:C *740:57 6.00631e-05
27 *1413:A2 *740:57 0
28 *1414:A *1342:A1 0
29 *1414:B *740:18 0.000500182
30 *1446:B *740:57 0
31 *1446:B *740:71 7.98582e-05
32 *1462:A1 *1343:B 1.54556e-05
33 *1462:A1 *740:47 0
34 *1787:D *1343:B 0
35 *1976:A *1343:B 0
36 *12:18 *740:28 7.55443e-05
37 *12:18 *740:30 0.000287759
38 *22:10 *740:10 0
39 *22:10 *740:18 0
40 *154:10 *1342:A1 0
41 *163:16 *740:71 1.54556e-05
42 *174:41 *740:57 0
43 *211:19 *740:28 0.000212704
44 *211:19 *740:30 0.000128248
45 *211:34 *740:28 0.000503416
46 *212:8 *740:28 0.000396106
47 *215:10 *740:57 0
48 *221:8 *740:47 0.000208195
49 *221:8 *740:57 1.54008e-05
50 *221:16 *1343:B 0.000235055
51 *221:16 *740:30 7.51285e-05
52 *257:16 *740:71 0.000290042
53 *285:24 *740:71 0.000289113
54 *544:164 *740:71 0
55 *544:174 *740:71 0
56 *566:27 *1343:B 0
57 *567:8 *740:10 0
58 *592:6 *740:18 0
59 *592:14 *740:18 0
60 *636:107 *740:71 0.000368865
61 *665:51 *740:71 1.54556e-05
62 *665:61 *740:71 0
63 *702:10 *1343:B 0
64 *730:12 *1343:B 0
65 *739:59 *740:28 0.00012816
*RES
1 *1786:Q *740:10 22.5956 
2 *740:10 *740:18 46.4787 
3 *740:18 *740:28 25.6959 
4 *740:28 *740:30 2.3278 
5 *740:30 *1343:B 45.4384 
6 *740:30 *740:47 21.4008 
7 *740:47 *740:57 4.0994 
8 *740:57 *740:71 46.1388 
9 *740:71 *1360:B1 20 
10 *740:57 *1409:B1 20 
11 *740:47 *1359:A 20 
12 *740:28 *1403:A 40 
13 *740:18 *1342:A1 21.1845 
14 *740:10 *1943:A 20 
*END

*D_NET *741 0.000734754
*CONN
*I *1964:A I *D sg13cmos5l_dlygate4sd3_1
*I *1763:Q O *D sg13cmos5l_dfrbpq_1
*CAP
1 *1964:A 0.000169744
2 *1763:Q 8.00194e-05
3 *741:8 0.000249763
4 *1261:A *1964:A 0
5 *4:38 *1964:A 0
6 *36:10 *741:8 0.000235228
7 *95:10 *741:8 0
*RES
1 *1763:Q *741:8 41.0918 
2 *741:8 *1964:A 41.4008 
*END

*D_NET *742 0.00216108
*CONN
*I *1928:A I *D sg13cmos5l_dlygate4sd3_1
*I *1297:A I *D sg13cmos5l_and2_1
*I *1773:Q O *D sg13cmos5l_dfrbpq_1
*CAP
1 *1928:A 0.000452653
2 *1297:A 0.000398623
3 *1773:Q 5.53242e-05
4 *742:8 0.0009066
5 *1821:D *1928:A 0
6 *37:12 *1297:A 0
7 *37:12 *1928:A 0
8 *124:8 *1297:A 0.000235228
9 *494:14 *1297:A 0
10 *494:14 *1928:A 0
11 *562:38 *1928:A 0
12 *644:14 *1297:A 0
13 *644:16 *1297:A 0
14 *671:53 *1928:A 0
15 *671:53 *742:8 0.000112651
*RES
1 *1773:Q *742:8 40.7519 
2 *742:8 *1297:A 44.7998 
3 *742:8 *1928:A 44.7792 
*END

*D_NET *743 0.000646724
*CONN
*I *1919:A I *D sg13cmos5l_dlygate4sd3_1
*I *1774:Q O *D sg13cmos5l_dfrbpq_1
*CAP
1 *1919:A 0.000202883
2 *1774:Q 0.000202883
3 *1820:CLK *1919:A 0
4 *562:19 *1919:A 0.000240957
*RES
1 *1774:Q *1919:A 41.9673 
*END

*D_NET *744 0.000178407
*CONN
*I *1990:A I *D sg13cmos5l_dlygate4sd3_1
*I *1775:Q O *D sg13cmos5l_dfrbpq_1
*CAP
1 *1990:A 8.92034e-05
2 *1775:Q 8.92034e-05
*RES
1 *1775:Q *1990:A 40.9167 
*END

*D_NET *745 0.000452475
*CONN
*I *1987:A I *D sg13cmos5l_dlygate4sd3_1
*I *1764:Q O *D sg13cmos5l_dfrbpq_1
*CAP
1 *1987:A 0.000226237
2 *1764:Q 0.000226237
3 *4:38 *1987:A 0
4 *677:14 *1987:A 0
*RES
1 *1764:Q *1987:A 42.3175 
*END

*D_NET *746 0.00249541
*CONN
*I *1942:A I *D sg13cmos5l_dlygate4sd3_1
*I *1765:Q O *D sg13cmos5l_dfrbpq_1
*CAP
1 *1942:A 0.000139511
2 *1765:Q 0.000449558
3 *746:8 0.000589069
4 *1625:A1 *1942:A 0
5 *93:24 *746:8 0.00114087
6 *336:20 *1942:A 0.000176405
7 *340:18 *746:8 0
8 *573:31 *1942:A 0
*RES
1 *1765:Q *746:8 45.2942 
2 *746:8 *1942:A 41.4008 
*END

*D_NET *747 0.000840509
*CONN
*I *1932:A I *D sg13cmos5l_dlygate4sd3_1
*I *1766:Q O *D sg13cmos5l_dfrbpq_1
*CAP
1 *1932:A 0.000327638
2 *1766:Q 0.000327638
3 *59:8 *1932:A 0
4 *440:16 *1932:A 0.000185233
5 *706:101 *1932:A 0
*RES
1 *1766:Q *1932:A 43.6488 
*END

*D_NET *748 0.00149204
*CONN
*I *1938:A I *D sg13cmos5l_dlygate4sd3_1
*I *1767:Q O *D sg13cmos5l_dfrbpq_1
*CAP
1 *1938:A 0.000634303
2 *1767:Q 0.000634303
3 *1634:B_N *1938:A 0.000111839
4 *433:8 *1938:A 0.00011159
5 *669:16 *1938:A 0
6 *671:49 *1938:A 0
*RES
1 *1767:Q *1938:A 45.6444 
*END

*D_NET *749 0.00139302
*CONN
*I *1999:A I *D sg13cmos5l_dlygate4sd3_1
*I *1768:Q O *D sg13cmos5l_dfrbpq_1
*CAP
1 *1999:A 0.000135457
2 *1768:Q 7.28716e-05
3 *749:8 0.000208329
4 *379:24 *749:8 0.00012816
5 *603:14 *1999:A 0.000240918
6 *650:70 *749:8 7.66483e-05
7 *652:20 *1999:A 0.000240918
8 *653:32 *749:8 0.000289713
9 *669:10 *749:8 0
*RES
1 *1768:Q *749:8 41.339 
2 *749:8 *1999:A 41.6171 
*END

*D_NET *750 0.00168129
*CONN
*I *1947:A I *D sg13cmos5l_dlygate4sd3_1
*I *1769:Q O *D sg13cmos5l_dfrbpq_1
*CAP
1 *1947:A 0.000145896
2 *1769:Q 0.000257489
3 *750:8 0.000403385
4 *62:16 *1947:A 0
5 *109:31 *750:8 0
6 *560:8 *750:8 0
7 *560:12 *750:8 0
8 *560:14 *1947:A 0
9 *649:36 *750:8 0.000874517
10 *652:20 *1947:A 0
*RES
1 *1769:Q *750:8 44.0582 
2 *750:8 *1947:A 41.4008 
*END

*D_NET *751 0.00162357
*CONN
*I *1944:A I *D sg13cmos5l_dlygate4sd3_1
*I *1770:Q O *D sg13cmos5l_dfrbpq_1
*CAP
1 *1944:A 0.000137078
2 *1770:Q 0.000293739
3 *751:10 0.000430817
4 *1289:A *1944:A 0
5 *1818:RESET_B *1944:A 0
6 *1818:D *1944:A 0
7 *1818:CLK *751:10 4.75151e-05
8 *63:8 *751:10 0.000714418
9 *111:12 *751:10 0
10 *113:14 *1944:A 0
11 *472:8 *751:10 0
12 *616:10 *1944:A 0
13 *717:30 *751:10 0
*RES
1 *1770:Q *751:10 44.1303 
2 *751:10 *1944:A 41.1845 
*END

*D_NET *752 0.00149465
*CONN
*I *1934:A I *D sg13cmos5l_dlygate4sd3_1
*I *1771:Q O *D sg13cmos5l_dfrbpq_1
*CAP
1 *1934:A 0.000207584
2 *1771:Q 0.000211884
3 *752:8 0.000419468
4 *1771:CLK *1934:A 4.77702e-05
5 *631:14 *752:8 0.000607939
6 *647:42 *752:8 0
7 *717:16 *1934:A 0
8 *717:16 *752:8 0
9 *717:30 *1934:A 0
*RES
1 *1771:Q *752:8 42.8222 
2 *752:8 *1934:A 42.0497 
*END

*D_NET *753 0.00117626
*CONN
*I *1293:A I *D sg13cmos5l_nor2_1
*I *1294:A I *D sg13cmos5l_nand2_1
*I *1772:Q O *D sg13cmos5l_dfrbpq_1
*CAP
1 *1293:A 0
2 *1294:A 0.000266113
3 *1772:Q 0.000140648
4 *753:12 0.000303808
5 *753:8 0.000178343
6 *1294:B *1294:A 0
7 *646:59 *753:8 0.000287343
8 *647:42 *753:8 0
*RES
1 *1772:Q *753:8 41.8334 
2 *753:8 *753:12 20.3193 
3 *753:12 *1294:A 21.8334 
4 *753:12 *1293:A 20 
*END

*D_NET *754 0.0113786
*CONN
*I *1760:A1 I *D sg13cmos5l_o21ai_1
*I *1925:A I *D sg13cmos5l_dlygate4sd3_1
*I *1758:A1 I *D sg13cmos5l_o21ai_1
*I *1960:A I *D sg13cmos5l_dlygate4sd3_1
*I *1505:A_N I *D sg13cmos5l_nand2b_1
*I *1790:Q O *D sg13cmos5l_dfrbpq_1
*CAP
1 *1760:A1 0.000261374
2 *1925:A 0.000224256
3 *1758:A1 0
4 *1960:A 0.000131026
5 *1505:A_N 0
6 *1790:Q 0.000207076
7 *754:50 0.000651802
8 *754:29 0.000991992
9 *754:25 0.000456323
10 *754:23 0.000537277
11 *754:12 0.000211865
12 *754:6 0.000671942
13 *1512:A *754:50 0.000426332
14 *1515:B *1960:A 0.000207986
15 *1515:B *754:50 6.46834e-05
16 *1515:A_N *1960:A 4.78359e-05
17 *1517:C *754:6 1.54556e-05
18 *1517:C *754:23 3.23636e-05
19 *1757:B *754:50 0
20 *1758:B1 *754:50 0
21 *1830:CLK *754:50 8.00842e-05
22 *1831:RESET_B *1760:A1 0
23 *1831:RESET_B *754:6 0
24 *1831:D *1760:A1 0
25 *1966:A *754:50 8.00842e-05
26 *1967:A *754:50 8.01938e-05
27 *1968:A *1760:A1 0.000402137
28 *1968:A *1925:A 0.000402137
29 *3:15 *1925:A 0.000402137
30 *283:40 *754:6 0
31 *307:10 *754:12 0.000606279
32 *307:25 *754:23 0.000410981
33 *307:25 *754:25 0.000106258
34 *307:25 *754:29 0.000341216
35 *307:27 *754:29 0.000768257
36 *308:26 *754:50 4.77425e-05
37 *309:36 *1760:A1 1.54556e-05
38 *310:18 *754:12 0
39 *584:10 *1960:A 9.67457e-05
40 *595:16 *754:29 0.000715225
41 *595:59 *754:23 0.000341216
42 *595:59 *754:25 0.00012816
43 *595:59 *754:29 0.000372152
44 *655:12 *754:50 0.000288512
45 *676:38 *754:50 0
46 *691:12 *754:50 0.000554087
47 *692:10 *754:50 0
*RES
1 *1790:Q *754:6 21.4008 
2 *754:6 *754:12 42.8222 
3 *754:12 *1505:A_N 20 
4 *754:6 *754:23 22.987 
5 *754:23 *754:25 0.5974 
6 *754:25 *754:29 25.047 
7 *754:29 *1960:A 21.4008 
8 *754:29 *754:50 47.931 
9 *754:50 *1758:A1 20 
10 *754:25 *1925:A 42.6986 
11 *754:23 *1760:A1 42.6986 
*END

*D_NET *755 0.00240963
*CONN
*I *1974:A I *D sg13cmos5l_dlygate4sd3_1
*I *1529:B1 I *D sg13cmos5l_o21ai_1
*I *1825:Q O *D sg13cmos5l_dfrbpq_1
*CAP
1 *1974:A 0
2 *1529:B1 0.000284927
3 *1825:Q 0.000250627
4 *755:10 0.000535554
5 *1529:A2 *1529:B1 1.54008e-05
6 *1740:A1 *1529:B1 0
7 *1744:A1 *755:10 0.000208725
8 *4:38 *755:10 0
9 *52:14 *1529:B1 0.00027354
10 *332:8 *1529:B1 0.000338323
11 *636:33 *1529:B1 0.000235055
12 *636:33 *755:10 0.000267483
13 *700:10 *755:10 0
*RES
1 *1825:Q *755:10 42.7398 
2 *755:10 *1529:B1 43.3578 
3 *755:10 *1974:A 40 
*END

*D_NET *756 0.015618
*CONN
*I *1995:A I *D sg13cmos5l_dlygate4sd3_1
*I *1733:B I *D sg13cmos5l_and3_1
*I *1746:A1 I *D sg13cmos5l_a21oi_1
*I *1527:B I *D sg13cmos5l_nand3_1
*I *1526:A I *D sg13cmos5l_nand2_1
*I *1826:Q O *D sg13cmos5l_dfrbpq_1
*CAP
1 *1995:A 0.000838897
2 *1733:B 0.000187455
3 *1746:A1 6.25961e-05
4 *1527:B 9.19849e-05
5 *1526:A 4.74638e-05
6 *1826:Q 7.91815e-05
7 *756:36 0.000674546
8 *756:26 0.0018342
9 *756:22 0.00148848
10 *756:12 0.000640604
11 *756:10 0.00108556
12 *756:8 0.00161152
13 *756:12 *757:14 0
14 *756:22 *757:14 0
15 *1527:C *1527:B 1.77739e-05
16 *1656:B *1527:B 0.000114986
17 *1742:B *756:10 0.000342659
18 *1742:A *1995:A 0
19 *1744:A2 *756:8 0.000144521
20 *1745:A *756:22 8.00842e-05
21 *1746:A2 *1746:A1 0.000111839
22 *1746:A2 *756:12 0.000346217
23 *1748:B *756:22 0.000144089
24 *1754:B *756:22 0
25 *1996:A *756:8 0.000144521
26 *50:14 *1995:A 0.000219437
27 *180:24 *1995:A 0
28 *300:24 *1995:A 0.00023464
29 *300:24 *756:10 0
30 *308:93 *756:22 0
31 *311:53 *1527:B 0
32 *311:53 *756:36 0.000402162
33 *329:8 *756:36 0.000613429
34 *332:14 *756:26 0
35 *334:16 *1526:A 8.00842e-05
36 *394:14 *756:36 0
37 *428:36 *1526:A 0
38 *452:8 *756:26 0
39 *459:8 *756:36 0.000182463
40 *465:14 *756:26 0.000503039
41 *465:14 *756:36 0
42 *521:26 *1746:A1 0.000112399
43 *522:21 *756:10 0.000106064
44 *522:21 *756:12 0.00028843
45 *523:10 *756:10 0
46 *535:10 *756:22 0
47 *544:11 *756:26 0
48 *544:15 *756:26 0
49 *574:22 *756:26 0
50 *576:33 *756:36 0.000144768
51 *576:48 *756:36 0
52 *619:81 *1733:B 0
53 *619:87 *1733:B 1.51e-05
54 *649:113 *756:36 0.000130372
55 *652:35 *756:36 0
56 *672:117 *1733:B 0
57 *674:20 *756:26 0.00231287
58 *677:24 *756:10 0
59 *677:81 *1995:A 0
60 *677:81 *756:10 0
61 *705:36 *756:12 0.000183564
62 *705:36 *756:22 0
63 *723:8 *1995:A 0
64 *724:10 *1995:A 0
*RES
1 *1826:Q *756:8 40.9682 
2 *756:8 *756:10 6.7774 
3 *756:10 *756:12 3.0694 
4 *756:12 *756:22 43.4608 
5 *756:22 *756:26 13.2767 
6 *756:26 *756:36 47.0452 
7 *756:36 *1526:A 40.5356 
8 *756:26 *1527:B 40.9837 
9 *756:12 *1746:A1 40.7519 
10 *756:10 *1733:B 41.5347 
11 *756:8 *1995:A 47.5705 
*END

*D_NET *757 0.00382223
*CONN
*I *1979:A I *D sg13cmos5l_dlygate4sd3_1
*I *1525:B I *D sg13cmos5l_nand3_1
*I *1524:A I *D sg13cmos5l_nand2_1
*I *1827:Q O *D sg13cmos5l_dfrbpq_1
*CAP
1 *1979:A 0
2 *1525:B 0.000196761
3 *1524:A 0.00028915
4 *1827:Q 7.56085e-05
5 *757:14 0.00087853
6 *757:8 0.000468227
7 *1524:B *1525:B 0
8 *1525:C *1525:B 8.00842e-05
9 *1546:B *1524:A 0
10 *1547:B *1524:A 0.000241407
11 *1547:A *1525:B 0.000144441
12 *1547:A *757:14 0
13 *1745:A *757:14 0
14 *180:24 *757:14 0
15 *325:14 *1524:A 0
16 *619:81 *757:8 0.00012315
17 *630:119 *1524:A 0.000177126
18 *677:24 *757:14 0.000427844
19 *677:30 *757:14 0.000719897
20 *705:36 *757:14 0
21 *756:12 *757:14 0
22 *756:22 *757:14 0
*RES
1 *1827:Q *757:8 20.9167 
2 *757:8 *757:14 45.2942 
3 *757:14 *1524:A 23.2136 
4 *757:14 *1525:B 21.8334 
5 *757:8 *1979:A 20 
*END

*D_NET *758 0.00942437
*CONN
*I *1985:A I *D sg13cmos5l_dlygate4sd3_1
*I *1755:A1 I *D sg13cmos5l_a21oi_1
*I *1522:A I *D sg13cmos5l_nand2_1
*I *1828:Q O *D sg13cmos5l_dfrbpq_1
*CAP
1 *1985:A 0.000287464
2 *1755:A1 0
3 *1522:A 0
4 *1828:Q 0.000329492
5 *758:26 0.000984806
6 *758:16 0.00142435
7 *758:8 0.0010565
8 *758:26 *759:38 0
9 *1510:A2 *758:16 2.23421e-05
10 *1511:A1 *758:16 0.000288233
11 *1515:B *758:8 0
12 *1516:B1 *758:8 0.000241066
13 *1571:A2 *758:26 0
14 *1751:A_N *758:8 0
15 *1751:A_N *758:16 0
16 *1755:A2 *758:26 0.000338487
17 *1790:D *758:8 0
18 *1986:A *758:8 0.000241423
19 *287:29 *758:8 0.000208966
20 *309:12 *1985:A 8.00842e-05
21 *309:12 *758:16 0.000449879
22 *312:33 *758:26 0
23 *313:8 *758:16 0.000214408
24 *313:16 *758:16 0.000341925
25 *320:10 *1985:A 0.000766706
26 *320:10 *758:16 0
27 *362:16 *758:16 0.000393568
28 *364:12 *758:16 0.000393568
29 *371:16 *758:26 0.000338498
30 *410:71 *758:26 0
31 *411:8 *758:26 7.54613e-05
32 *540:10 *758:26 0.000208955
33 *584:21 *1985:A 0.000448012
34 *619:67 *758:16 0.000290175
35 *630:119 *758:26 0
36 *630:134 *758:26 0
37 *642:26 *758:26 0
38 *708:41 *758:26 0
*RES
1 *1828:Q *758:8 43.5638 
2 *758:8 *758:16 27.4469 
3 *758:16 *758:26 49.1464 
4 *758:26 *1522:A 20 
5 *758:16 *1755:A1 20 
6 *758:8 *1985:A 44.4187 
*END

*D_NET *759 0.00222151
*CONN
*I *1981:A I *D sg13cmos5l_dlygate4sd3_1
*I *1521:B I *D sg13cmos5l_nand3_1
*I *1520:A I *D sg13cmos5l_nand2_1
*I *1829:Q O *D sg13cmos5l_dfrbpq_1
*CAP
1 *1981:A 0
2 *1521:B 0
3 *1520:A 0.000295722
4 *1829:Q 0
5 *759:38 0.00045989
6 *759:12 0.000461999
7 *759:4 0.000626167
8 *1520:B *1520:A 0
9 *1546:A *1520:A 0
10 *1546:B *1520:A 0
11 *1552:A *1520:A 1.54556e-05
12 *1552:A *759:12 0
13 *323:10 *1520:A 0.000112098
14 *324:12 *1520:A 0
15 *371:10 *759:12 0.000234726
16 *411:8 *759:38 0
17 *563:83 *759:12 0
18 *563:83 *759:38 0
19 *630:134 *1520:A 0
20 *630:134 *759:12 1.54556e-05
21 *642:26 *759:38 0
22 *758:26 *759:38 0
*RES
1 *1829:Q *759:4 20 
2 *759:4 *759:12 41.8437 
3 *759:12 *1520:A 22.884 
4 *759:12 *1521:B 20 
5 *759:4 *759:38 43.9449 
6 *759:38 *1981:A 20 
*END

*D_NET *760 0.00104868
*CONN
*I *1946:A I *D sg13cmos5l_dlygate4sd3_1
*I *1807:Q O *D sg13cmos5l_dfrbpq_1
*CAP
1 *1946:A 0
2 *1807:Q 0.000138186
3 *760:18 0.000233819
4 *760:10 0.000372004
5 *1360:A1 *760:10 0
6 *163:16 *760:10 4.79124e-05
7 *163:29 *760:10 0
8 *270:14 *760:18 0.000128379
9 *283:30 *760:18 0.000128379
10 *544:164 *760:10 0
11 *663:105 *760:10 0
12 *665:51 *760:10 0
*RES
1 *1807:Q *760:10 41.2875 
2 *760:10 *760:18 43.0797 
3 *760:18 *1946:A 40 
*END

*D_NET *761 0.00225147
*CONN
*I *1953:A I *D sg13cmos5l_dlygate4sd3_1
*I *1810:Q O *D sg13cmos5l_dfrbpq_1
*CAP
1 *1953:A 3.7009e-05
2 *1810:Q 0.000479239
3 *761:8 0.000516248
4 *162:16 *761:8 0.000426756
5 *165:36 *761:8 0.000183564
6 *193:58 *761:8 0
7 *289:8 *761:8 0
8 *636:33 *761:8 0
9 *659:16 *761:8 0.00060865
10 *659:20 *761:8 0
*RES
1 *1810:Q *761:8 46.283 
2 *761:8 *1953:A 40.3193 
*END

*D_NET *762 0.00927197
*CONN
*I *1255:A I *D sg13cmos5l_inv_1
*I *1804:CLK I *D sg13cmos5l_dfrbpq_1
*I *1488:B2 I *D sg13cmos5l_a22oi_1
*I *1802:Q O *D sg13cmos5l_dfrbpq_1
*CAP
1 *1255:A 0.000100868
2 *1804:CLK 4.66635e-05
3 *1488:B2 0.000509349
4 *1802:Q 0.000875892
5 *762:42 0.000516221
6 *762:16 0.00118854
7 *762:14 0.00121406
8 *762:12 0.00104208
9 *1488:B2 *1480:A1 0.000208615
10 *762:14 *764:10 0.000318191
11 *762:16 *764:10 2.23421e-05
12 *1315:A *762:12 0.000144861
13 *1792:RESET_B *762:14 0
14 *25:8 *1255:A 0.000112493
15 *25:16 *762:42 0.000178645
16 *25:24 *762:12 0.000181438
17 *26:14 *1488:B2 0
18 *27:12 *762:12 2.34741e-05
19 *27:12 *762:16 0
20 *27:29 *1488:B2 0.000344506
21 *27:29 *1804:CLK 4.77425e-05
22 *27:29 *762:16 7.51285e-05
23 *161:23 *762:16 0
24 *162:35 *1488:B2 0
25 *172:54 *1488:B2 0
26 *172:54 *1804:CLK 8.00842e-05
27 *188:62 *762:12 0
28 *196:24 *762:16 0
29 *209:58 *1488:B2 0
30 *227:10 *1255:A 0.000177297
31 *247:10 *762:42 0.000768492
32 *297:8 *762:16 0.000660507
33 *298:18 *1488:B2 0.000183564
34 *298:18 *762:16 0.000106064
35 *558:23 *762:16 0
36 *598:14 *762:12 0
37 *598:14 *762:42 0
38 *626:20 *762:42 0
39 *667:10 *762:12 0.000144861
40 *679:16 *762:12 0
*RES
1 *1802:Q *762:12 48.8065 
2 *762:12 *762:14 1.8334 
3 *762:14 *762:16 6.5302 
4 *762:16 *1488:B2 45.3663 
5 *762:16 *1804:CLK 40.5356 
6 *762:14 *762:42 45.0779 
7 *762:42 *1255:A 41.1845 
*END

*D_NET *763 0.00401267
*CONN
*I *1805:CLK I *D sg13cmos5l_dfrbpq_1
*I *1487:A I *D sg13cmos5l_nand2_1
*I *1256:A I *D sg13cmos5l_inv_1
*I *1804:Q O *D sg13cmos5l_dfrbpq_1
*CAP
1 *1805:CLK 0
2 *1487:A 0.000146963
3 *1256:A 9.45145e-05
4 *1804:Q 0.000207975
5 *763:35 0.000505224
6 *763:18 0.00105186
7 *763:8 0.000807064
8 *1383:B *1487:A 0
9 *1487:B *1487:A 0
10 *202:103 *763:18 0.000664096
11 *295:10 *1487:A 7.93152e-05
12 *558:23 *763:8 0.000240918
13 *558:23 *763:18 0
14 *626:20 *763:35 0
15 *641:28 *763:18 0
16 *641:28 *763:35 0
17 *678:49 *763:8 0.000134653
18 *678:49 *763:18 8.00842e-05
*RES
1 *1804:Q *763:8 22.2145 
2 *763:8 *763:18 25.7912 
3 *763:18 *1256:A 40.7236 
4 *763:18 *763:35 43.5715 
5 *763:35 *1487:A 41.1845 
6 *763:8 *1805:CLK 20 
*END

*D_NET *764 0.00136878
*CONN
*I *1257:A I *D sg13cmos5l_inv_1
*I *1805:Q O *D sg13cmos5l_dfrbpq_1
*CAP
1 *1257:A 9.10832e-05
2 *1805:Q 0.000172917
3 *764:10 0.000264001
4 *1489:A2 *764:10 0.000143893
5 *27:12 *1257:A 1.54008e-05
6 *27:12 *764:10 0.000340949
7 *762:14 *764:10 0.000318191
8 *762:16 *764:10 2.23421e-05
*RES
1 *1805:Q *764:10 42.5544 
2 *764:10 *1257:A 40.7519 
*END

*D_NET *765 0.00369315
*CONN
*I *1835:A I *D sg13cmos5l_buf_8
*I *1859:A I *D sg13cmos5l_buf_8
*I *1803:Q O *D sg13cmos5l_dfrbpq_1
*CAP
1 *1835:A 9.14856e-05
2 *1859:A 6.28309e-05
3 *1803:Q 0
4 *765:31 0.00038298
5 *765:26 0.000291494
6 *765:13 0.0013751
7 *765:11 0.00140076
8 *765:6 8.84917e-05
9 *1485:A2 *1835:A 0
10 *1485:A2 *765:31 0
11 *1810:RESET_B *765:13 0
12 *202:10 *765:31 0
13 *202:16 *765:13 0
14 *288:18 *765:31 0
15 *305:10 *765:13 0
16 *305:28 *765:13 0
17 *547:15 *765:13 0
18 *565:18 *765:11 0
19 *565:18 *765:13 0
20 *565:18 *765:31 0
21 *655:126 *1859:A 0
22 *658:49 *765:11 0
23 *658:49 *765:13 0
24 *659:26 *1835:A 0
25 *659:26 *765:31 0
26 *675:14 *765:13 0
27 *675:40 *765:13 0
*RES
1 *1803:Q *765:6 40 
2 *765:6 *765:11 0.8446 
3 *765:11 *765:13 12.2158 
4 *765:13 *1859:A 40.5356 
5 *765:11 *765:26 20 
6 *765:26 *765:31 2.6986 
7 *765:31 *1835:A 20.9682 
*END

*D_NET *766 0.00361895
*CONN
*I *1836:A I *D sg13cmos5l_buf_8
*I *1859:X O *D sg13cmos5l_buf_8
*CAP
1 *1836:A 0.000119864
2 *1859:X 0.000176996
3 *766:17 0.000119864
4 *766:15 0.00151262
5 *766:6 0.00168961
6 *766:15 *772:28 0
7 *1965:A *766:15 0
8 *31:12 *766:15 0
9 *209:32 *1836:A 0
10 *292:10 *1836:A 0
11 *547:15 *766:15 0
12 *555:14 *766:15 0
13 *674:43 *766:15 0
14 *674:60 *1836:A 0
15 *690:10 *766:15 0
*RES
1 *1859:X *766:6 21.4008 
2 *766:6 *766:15 33.0295 
3 *766:15 *766:17 20 
4 *766:17 *1836:A 20.9682 
*END

*D_NET *767 0.00417404
*CONN
*I *1860:A I *D sg13cmos5l_buf_8
*I *1837:A I *D sg13cmos5l_buf_8
*I *1797:Q O *D sg13cmos5l_dfrbpq_1
*CAP
1 *1860:A 0.000146943
2 *1837:A 8.42962e-05
3 *1797:Q 0
4 *767:21 0.000346146
5 *767:15 0.00180038
6 *767:6 0.00159393
7 *767:4 0.000202344
8 *767:15 *1838:A 0
9 *1500:B *767:21 0
10 *1965:A *767:21 0
11 *180:73 *767:15 0
12 *288:18 *767:15 0
13 *306:20 *767:15 0
14 *558:12 *767:15 0
*RES
1 *1797:Q *767:4 20 
2 *767:4 *767:6 0.5356 
3 *767:6 *767:15 32.257 
4 *767:15 *767:21 22.3381 
5 *767:21 *1837:A 20.8137 
6 *767:4 *1860:A 21.3802 
*END

*D_NET *768 0.000615324
*CONN
*I *1838:A I *D sg13cmos5l_buf_8
*I *1860:X O *D sg13cmos5l_buf_8
*CAP
1 *1838:A 0.000307662
2 *1860:X 0.000307662
3 *209:24 *1838:A 0
4 *288:18 *1838:A 0
5 *767:15 *1838:A 0
*RES
1 *1860:X *1838:A 42.9664 
*END

*D_NET *769 0.00249927
*CONN
*I *1248:A I *D sg13cmos5l_inv_1
*I *1806:CLK I *D sg13cmos5l_dfrbpq_1
*I *1801:Q O *D sg13cmos5l_dfrbpq_1
*CAP
1 *1248:A 0
2 *1806:CLK 0
3 *1801:Q 0.000453762
4 *769:14 0.000187019
5 *769:8 0.000640781
6 *769:14 *772:20 0.000768782
7 *31:12 *769:14 0.00044893
8 *288:18 *769:8 0
9 *293:14 *769:8 0
10 *546:48 *769:14 0
*RES
1 *1801:Q *769:8 23.9449 
2 *769:8 *769:14 43.5638 
3 *769:14 *1806:CLK 20 
4 *769:8 *1248:A 20 
*END

*D_NET *770 0.00995922
*CONN
*I *1481:B2 I *D sg13cmos5l_a221oi_1
*I *1795:CLK I *D sg13cmos5l_dfrbpq_1
*I *1249:A I *D sg13cmos5l_inv_1
*I *1806:Q O *D sg13cmos5l_dfrbpq_1
*CAP
1 *1481:B2 0
2 *1795:CLK 0.000186095
3 *1249:A 0.000404708
4 *1806:Q 0
5 *770:42 0.00155217
6 *770:8 0.000660978
7 *770:6 0.00162235
8 *1249:A *772:20 0.00087619
9 *770:8 *772:20 0.000395068
10 *770:42 *772:10 0.000208769
11 *770:42 *772:20 0.000342864
12 *770:42 *773:10 0.000786022
13 *770:42 *773:18 0
14 *1481:C1 *770:42 0.0001122
15 *1486:A0 *770:42 0.000628223
16 *1486:A1 *770:42 0
17 *1486:S *770:42 8.02927e-05
18 *28:8 *1249:A 0.00087619
19 *28:8 *770:8 0.000372971
20 *28:8 *770:42 0.000160341
21 *28:16 *1249:A 0.000131027
22 *29:8 *1249:A 0
23 *209:24 *770:42 0
24 *293:14 *1795:CLK 0
25 *555:8 *770:42 0.00030663
26 *658:41 *770:42 0.0001122
27 *658:76 *1795:CLK 0.000143932
28 *674:60 *1795:CLK 0
*RES
1 *1806:Q *770:6 40 
2 *770:6 *770:8 1.8334 
3 *770:8 *1249:A 46.3242 
4 *770:8 *1795:CLK 41.8334 
5 *770:6 *770:42 36.686 
6 *770:42 *1481:B2 20 
*END

*D_NET *771 0.00680891
*CONN
*I *1480:A1 I *D sg13cmos5l_a22oi_1
*I *1796:CLK I *D sg13cmos5l_dfrbpq_1
*I *1250:A I *D sg13cmos5l_inv_1
*I *1795:Q O *D sg13cmos5l_dfrbpq_1
*CAP
1 *1480:A1 0.000133771
2 *1796:CLK 0.000452246
3 *1250:A 0.00111232
4 *1795:Q 0
5 *771:38 0.00113277
6 *771:19 0.00158899
7 *771:6 0.00125007
8 *1796:CLK *776:21 0
9 *771:38 *1488:A1 0.000112651
10 *1483:B1 *1250:A 0
11 *1488:B2 *1480:A1 0.000208615
12 *209:43 *771:38 0
13 *209:58 *1480:A1 0.000111839
14 *209:58 *771:38 0
15 *288:8 *1480:A1 0
16 *288:18 *771:38 0.000289714
17 *293:18 *1250:A 0
18 *293:18 *771:19 0
19 *293:18 *771:38 0
20 *549:19 *1796:CLK 0
21 *552:12 *771:38 0.000128663
22 *658:95 *1250:A 0
23 *658:95 *771:19 0
24 *658:95 *771:38 0
25 *674:51 *1250:A 0
26 *678:12 *771:38 0.000287256
27 *681:18 *1250:A 0
*RES
1 *1795:Q *771:6 40 
2 *771:6 *1250:A 49.2906 
3 *771:6 *771:19 1.0918 
4 *771:19 *1796:CLK 43.5638 
5 *771:19 *771:38 49.1464 
6 *771:38 *1480:A1 41.4008 
*END

*D_NET *772 0.00852181
*CONN
*I *1480:B2 I *D sg13cmos5l_a22oi_1
*I *1798:CLK I *D sg13cmos5l_dfrbpq_1
*I *1251:A I *D sg13cmos5l_inv_1
*I *1796:Q O *D sg13cmos5l_dfrbpq_1
*CAP
1 *1480:B2 0
2 *1798:CLK 0
3 *1251:A 0
4 *1796:Q 0
5 *772:48 0.000539434
6 *772:28 0.000327888
7 *772:20 0.00126516
8 *772:10 0.0011303
9 *772:4 0.000732457
10 *772:10 *773:10 0
11 *1249:A *772:20 0.00087619
12 *1484:C1 *772:20 0.00014502
13 *1486:A1 *772:10 0.000208615
14 *1488:A2 *772:48 8.00842e-05
15 *31:12 *772:20 0
16 *31:12 *772:28 1.54556e-05
17 *172:54 *772:48 3.23417e-05
18 *209:32 *772:20 0.000241166
19 *209:58 *772:48 0.000236596
20 *288:8 *772:48 0.000112426
21 *288:18 *772:10 0.000234311
22 *288:18 *772:20 0.000181608
23 *288:18 *772:48 0
24 *546:48 *772:20 0
25 *552:29 *772:48 0.00044728
26 *766:15 *772:28 0
27 *769:14 *772:20 0.000768782
28 *770:8 *772:20 0.000395068
29 *770:42 *772:10 0.000208769
30 *770:42 *772:20 0.000342864
*RES
1 *1796:Q *772:4 20 
2 *772:4 *772:10 22.4926 
3 *772:10 *772:20 32.0304 
4 *772:20 *772:28 42.369 
5 *772:28 *1251:A 20 
6 *772:10 *1798:CLK 40 
7 *772:4 *772:48 45.3045 
8 *772:48 *1480:B2 20 
*END

*D_NET *773 0.01165
*CONN
*I *1252:A I *D sg13cmos5l_inv_1
*I *1799:CLK I *D sg13cmos5l_dfrbpq_1
*I *1481:A1 I *D sg13cmos5l_a221oi_1
*I *1798:Q O *D sg13cmos5l_dfrbpq_1
*CAP
1 *1252:A 0
2 *1799:CLK 0.000198861
3 *1481:A1 0
4 *1798:Q 0.00030701
5 *773:42 0.000850416
6 *773:25 0.00119294
7 *773:18 0.0010634
8 *773:10 0.00151407
9 *773:25 *1488:A1 0.000181192
10 *773:42 *1254:A 2.53347e-05
11 *773:42 *1488:A1 0.000183074
12 *773:42 *775:19 0.0018684
13 *1486:A1 *773:18 0
14 *1791:D *773:18 0.000241423
15 *1798:RESET_B *773:18 0.000144743
16 *1842:A *773:18 0
17 *26:14 *773:18 0.000177345
18 *162:35 *773:18 0.000499797
19 *180:58 *773:18 4.77425e-05
20 *209:32 *773:10 0.000717275
21 *209:43 *773:10 0.000503098
22 *209:43 *773:25 0.000318191
23 *288:18 *773:10 0
24 *294:10 *773:18 0.000434462
25 *298:10 *773:42 0.000395177
26 *546:48 *773:18 0
27 *656:37 *773:18 0
28 *658:95 *773:25 0
29 *658:95 *773:42 0
30 *680:121 *773:42 0
31 *770:42 *773:10 0.000786022
32 *770:42 *773:18 0
33 *772:10 *773:10 0
*RES
1 *1798:Q *773:10 45.8607 
2 *773:10 *773:18 30.9386 
3 *773:18 *1481:A1 20 
4 *773:10 *773:25 2.0806 
5 *773:25 *1799:CLK 41.751 
6 *773:25 *773:42 30.4648 
7 *773:42 *1252:A 20 
*END

*D_NET *774 0.00635109
*CONN
*I *1253:A I *D sg13cmos5l_inv_1
*I *1800:CLK I *D sg13cmos5l_dfrbpq_1
*I *1799:Q O *D sg13cmos5l_dfrbpq_1
*CAP
1 *1253:A 0
2 *1800:CLK 0.000260506
3 *1799:Q 3.22964e-05
4 *774:25 0.00102595
5 *774:8 0.00131875
6 *774:25 *1802:CLK 0
7 *1490:B *1800:CLK 0
8 *7:13 *774:25 0
9 *33:10 *774:25 0
10 *34:8 *774:25 0.000554579
11 *136:8 *774:25 0
12 *298:10 *1800:CLK 7.93152e-05
13 *552:12 *774:8 0.00018261
14 *552:12 *774:25 0.0007988
15 *658:95 *774:25 0
16 *662:8 *774:25 0.000555822
17 *678:8 *774:8 0.000106392
18 *678:8 *774:25 0.000394652
19 *678:12 *774:8 7.57164e-05
20 *680:10 *774:25 0.000448514
21 *680:27 *774:25 0.000335916
22 *680:121 *774:25 0.00018128
*RES
1 *1799:Q *774:8 40.8446 
2 *774:8 *1800:CLK 42.1836 
3 *774:8 *774:25 33.9874 
4 *774:25 *1253:A 20 
*END

*D_NET *775 0.00804795
*CONN
*I *1802:CLK I *D sg13cmos5l_dfrbpq_1
*I *1254:A I *D sg13cmos5l_inv_1
*I *1488:A1 I *D sg13cmos5l_a22oi_1
*I *1800:Q O *D sg13cmos5l_dfrbpq_1
*CAP
1 *1802:CLK 0.000659291
2 *1254:A 0.000212101
3 *1488:A1 0.000142262
4 *1800:Q 0
5 *775:19 0.00130975
6 *775:6 0.000580617
7 *1383:A *1802:CLK 0
8 *136:8 *1802:CLK 0.000289002
9 *136:25 *1802:CLK 0
10 *209:43 *1488:A1 8.0216e-05
11 *209:58 *1488:A1 3.23417e-05
12 *262:10 *1802:CLK 0
13 *296:8 *1488:A1 0.000235836
14 *296:8 *775:19 0.00161774
15 *626:20 *1802:CLK 0
16 *641:28 *1802:CLK 0
17 *656:12 *1802:CLK 0.000279978
18 *656:12 *775:19 2.9278e-05
19 *667:113 *1802:CLK 0.000208889
20 *679:12 *1802:CLK 0
21 *680:121 *1802:CLK 0
22 *771:38 *1488:A1 0.000112651
23 *773:25 *1488:A1 0.000181192
24 *773:42 *1254:A 2.53347e-05
25 *773:42 *1488:A1 0.000183074
26 *773:42 *775:19 0.0018684
27 *774:25 *1802:CLK 0
*RES
1 *1800:Q *775:6 40 
2 *775:6 *1488:A1 42.3381 
3 *775:6 *775:19 9.03568 
4 *775:19 *1254:A 41.5836 
5 *775:19 *1802:CLK 47.0014 
*END

*D_NET *776 0.00651894
*CONN
*I *1858:A I *D sg13cmos5l_buf_8
*I *1839:A I *D sg13cmos5l_buf_8
*I *1794:Q O *D sg13cmos5l_dfrbpq_1
*CAP
1 *1858:A 0.000103338
2 *1839:A 0.000172219
3 *1794:Q 0
4 *776:48 0.00107524
5 *776:39 0.000971903
6 *776:21 0.000710129
7 *776:17 0.00201201
8 *776:8 0.0014741
9 *776:6 0
10 *1796:CLK *776:21 0
11 *1845:A *776:21 0
12 *50:20 *776:48 0
13 *193:12 *1858:A 0
14 *193:12 *776:48 0
15 *203:41 *776:48 0
16 *288:18 *776:21 0
17 *293:14 *776:21 0
18 *544:108 *776:17 0
19 *544:110 *776:17 0
20 *544:164 *776:17 0
21 *549:19 *776:21 0
22 *558:12 *776:17 0
23 *676:73 *776:48 0
24 *677:81 *776:48 0
25 *677:87 *776:48 0
*RES
1 *1794:Q *776:6 40 
2 *776:6 *776:8 20 
3 *776:8 *776:17 35.347 
4 *776:17 *776:21 24.6453 
5 *776:21 *1839:A 21.5347 
6 *1794:Q *776:39 40 
7 *776:39 *776:48 30.0013 
8 *776:48 *1858:A 20.9682 
*END

*D_NET *777 0.00133437
*CONN
*I *1840:A I *D sg13cmos5l_buf_8
*I *1858:X O *D sg13cmos5l_buf_8
*CAP
1 *1840:A 0
2 *1858:X 0.000137937
3 *777:15 0.000529245
4 *777:6 0.000667183
5 *135:52 *777:15 0
6 *550:37 *777:15 0
7 *676:67 *777:6 0
8 *682:14 *777:6 0
9 *682:14 *777:15 0
*RES
1 *1858:X *777:6 21.1845 
2 *777:6 *777:15 24.8719 
3 *777:15 *1840:A 40 
*END
